ALGO = Normal
EDIFF = 0.0007
EDIFFG = -0.05
ENCUT = 520
IBRION = -1
ISIF = 3
ISMEAR = -5
ISPIN = 2
KPAR = 8
LAECHG = True
LASPH = True
LCHARG = True
LORBIT = 11
LREAL = Auto
LVHAR = True
LWAVE = False
MAGMOM = 14*0.6
NELM = 100
NSW = 0
PREC = Accurate
SIGMA = 0.05
