pymatgen v2020.11.11 with grid density = 1478 / number of atoms
0
Monkhorst
4 4 6
