Ba1 Ti1 O3                              
   1.00000000000000     
     4.0013680823498534    0.0000000000000000    0.0000000000000000
     0.0000000000000000    4.0013680823498534    0.0000000000000000
     0.0000000000000000   -0.0000000000000000    4.2157437357650549
   Ba   Ti   O 
     1     1     3
Direct
  0.0000000000000000 -0.0000000000000000  0.0202728255993465
  0.5000000000000000  0.5000000000000000  0.5388520812683074
  0.0000000000000000  0.5000000000000000  0.4920223874401202
  0.5000000000000000 -0.0000000000000000  0.4920223874401202
  0.5000000000000000  0.5000000000000000  0.9708293182521111
 
  0.00000000E+00  0.00000000E+00  0.00000000E+00
  0.00000000E+00  0.00000000E+00  0.00000000E+00
  0.00000000E+00  0.00000000E+00  0.00000000E+00
  0.00000000E+00  0.00000000E+00  0.00000000E+00
  0.00000000E+00  0.00000000E+00  0.00000000E+00
