Ba1 Ti1 O3
1.0
4.002006 0.000000 0.000000
-0.000000 4.002006 0.000000
0.000000 0.000000 4.215507
Ba Ti O
1 1 3
direct
0.000000 0.000000 0.020229 Ba
0.500000 0.500000 0.538921 Ti
0.000000 0.500000 0.492023 O
0.500000 0.000000 0.492023 O
0.500000 0.500000 0.970803 O
