Si2                                     
   1.00000000000000     
     3.4600860000000000    0.0000000000000000    1.9976810000000000
     1.1533620000000000    3.2622000000000000    1.9976810000000000
     0.0000000000000000    0.0000000000000000    3.9953620000000001
   Si
     2
Direct
  0.8750000000000000  0.8750000000000000  0.8750000000000000
  0.1250000000000000  0.1250000000000000  0.1250000000000000
 
  0.00000000E+00  0.00000000E+00  0.00000000E+00
  0.00000000E+00  0.00000000E+00  0.00000000E+00
