Si2
1.0
3.181047 -0.000000 1.836578
1.060349 2.999119 1.836578
0.000000 0.000000 3.673155
Si
2
direct
0.875000 0.875000 0.875000 Si
0.125000 0.125000 0.125000 Si

0.000000 0.000000 0.000000
0.000000 0.000000 0.000000
