Si2
1.0
3.867457 0.000000 0.000000
1.933728 3.349317 0.000000
0.000000 -2.232876 3.157766
Si
2
direct
0.998864 0.999733 0.999709 Si
0.751136 0.500267 0.750291 Si
