Ba1 Ti1 O3                              
   1.00000000000000     
     4.0013680000000003    0.0000000000000000    0.0000000000000000
     0.0000000000000000    4.0013680000000003    0.0000000000000000
     0.0000000000000000    0.0000000000000000    4.2157439999999999
   Ba   Ti   O 
     1     1     3
Direct
  0.0000000000000000  0.0000000000000000  0.0202730000000031
  0.5000000000000000  0.5000000000000000  0.5388519999999986
  0.0000000000000000  0.5000000000000000  0.4920219999999986
  0.5000000000000000  0.0000000000000000  0.4920219999999986
  0.5000000000000000  0.5000000000000000  0.9708290000000019
 
  0.00000000E+00  0.00000000E+00  0.00000000E+00
  0.00000000E+00  0.00000000E+00  0.00000000E+00
  0.00000000E+00  0.00000000E+00  0.00000000E+00
  0.00000000E+00  0.00000000E+00  0.00000000E+00
  0.00000000E+00  0.00000000E+00  0.00000000E+00
