$molecule
 0  3
 S          -0.01806751        0.44661919       -0.04085929
 C           1.69268044        0.21661087       -0.04392406
 H           2.25504587        0.33055482        0.86711357
 C           2.19358481       -0.11156535       -1.30306695
 H           3.24493128       -0.28705096       -1.47749232
 C           1.23419097       -0.18832714       -2.27969081
 H           1.41780922       -0.42884607       -3.31540271
 C          -0.10080114        0.09259041       -1.77631473
 C          -1.26244536        0.10213358       -2.45607151
 C          -1.48089629       -0.16602132       -3.86846887
 H          -0.67087629       -0.41169864       -4.53762839
 C          -2.80122770       -0.07050673       -4.22587213
 H          -3.16623046       -0.23433613       -5.22910772
 C          -3.64955016        0.26057326       -3.17004630
 H          -4.71779276        0.38794675       -3.21319380
 S          -2.81154662        0.46953115       -1.67550382
$end


$rem
              jobtype = opt
               method = wb97m-v
                basis = def2-tzvppd
  geom_opt_max_cycles = 75
       max_scf_cycles = 300
        scf_algorithm = diis
            scf_guess = sad
           sym_ignore = true
             symmetry = false
               thresh = 14
$end


$opt
CONSTRAINT
tors 6 8 9 10 0.0
ENDCONSTRAINT
$end

