$molecule
 1 1
 Li      3.1203755191     -0.0654620597      0.1309288714
 C     -1.8690128951      0.7580298858     -0.0069609776
 O     -0.5071900168      1.1257319180      0.4093124826
 C     -1.8469507834     -0.7585898548      0.0118808414
 S      0.5227336572      0.0223401369     -0.0435209308
 O     -0.5058252930     -1.0817980583     -0.4969830896
 O      1.3572717615      0.4207627784     -1.1692541929
 O      1.3382203748     -0.3846747293      1.1009671249
 H     -2.5426908864      1.1864654442      0.7308976770
 H     -2.0372200619      1.1634118960     -0.9997619598
 H     -1.9382008671     -1.1782793954      1.0131613565
 H     -2.5530829701     -1.2078317001     -0.6813380921
$end

$rem
   job_type = opt
   basis = 6-31++g**
   max_scf_cycles = 200
   gen_scfman = true
   xc_grid = 3
   scf_algorithm = diis_gdm
   method = wb97xd
   geom_opt_max_cycles = 200
   solvent_method = smd
   ideriv = 1
   scf_guess = read
   geom_opt_hessian = read
$end

$smx
   solvent acetonitrile
$end
