$molecule
 read
$end

$rem
   job_type = freq
   basis = 6-31++g**
   max_scf_cycles = 200
   gen_scfman = true
   xc_grid = 3
   scf_algorithm = diis_gdm
   method = wb97xd
   geom_opt_max_cycles = 200
   solvent_method = smd
   ideriv = 1
   scf_guess = read
$end

$smx
   solvent acetonitrile
$end
