$molecule
 1 1
 Li      3.0905874227      0.0000399416     -0.0003779723
 C     -1.8532221710      0.7622926194     -0.0099573840
 O     -0.5064124000      1.1089155069      0.4370123849
 C     -1.8532399288     -0.7622730053      0.0098193115
 S      0.5268146280     -0.0000055942      0.0000640180
 O     -0.5063921542     -1.1089379906     -0.4369490496
 O      1.3571519531      0.3847638021     -1.1368852448
 O      1.3571509861     -0.3847699331      1.1369871845
 H     -2.5377956272      1.2076186487      0.7090790769
 H     -1.9991444265      1.1788101697     -1.0080464829
 H     -1.9993327218     -1.1787753336      1.0078901404
 H     -2.5377380217     -1.2075725699     -0.7093068716
$end

$rem
   job_type = opt
   basis = 6-31++g**
   max_scf_cycles = 200
   gen_scfman = true
   xc_grid = 3
   scf_algorithm = diis_gdm
   method = wb97xd
   geom_opt_max_cycles = 200
   solvent_method = smd
   ideriv = 1
$end

$smx
   solvent acetonitrile
$end
