La2 Al2 O6
  0.991787592008348
     5.3862660925524244    0.0010214503668305    0.0007234974386687
     2.6758257647928700    4.6745930239175060    0.0007234974387278
     2.6758257647928749    1.5518465799685728    4.4094889335543810
   La   Al   O
     2     2     6
Direct
  0.7500000000000000  0.7500000000000000  0.7500000000000000
  0.2500000000000000  0.2500000000000000  0.2500000000000000
  0.5000000000000000  0.5000000000000000  0.5000000000000000
  0.0000000000000000  0.0000000000000000  0.0000000000000000
  0.2850018694079921  0.7500000000000000  0.2149981155920102
  0.7500000000000000  0.2149981155920102  0.2850018694079921
  0.2149981155920102  0.2850018694079921  0.7500000000000000
  0.7149981005920125  0.2500000000000000  0.7850018994079875
  0.7850018994079875  0.7149981005920125  0.2500000000000000
  0.2500000000000000  0.7850018994079875  0.7149981005920125

  0.00000000E+00  0.00000000E+00  0.00000000E+00
  0.00000000E+00  0.00000000E+00  0.00000000E+00
  0.00000000E+00  0.00000000E+00  0.00000000E+00
  0.00000000E+00  0.00000000E+00  0.00000000E+00
  0.00000000E+00  0.00000000E+00  0.00000000E+00
  0.00000000E+00  0.00000000E+00  0.00000000E+00
  0.00000000E+00  0.00000000E+00  0.00000000E+00
  0.00000000E+00  0.00000000E+00  0.00000000E+00
  0.00000000E+00  0.00000000E+00  0.00000000E+00
  0.00000000E+00  0.00000000E+00  0.00000000E+00
