Automatically generated mesh
  0
M
 8 8 8
  .000000000000     .000000000000     .000000000000
