Ir4
1.0
0.000000 -1.945948 -1.945948
0.000000 -1.945948 1.945948
-31.135172 0.000000 0.000000
Ir
4
direct
0.000000 0.000000 0.531250 Ir
0.500000 0.500000 0.593750 Ir
0.000000 0.000000 0.406250 Ir
0.500000 0.500000 0.468750 Ir

0.000000 0.000000 0.000000
0.000000 0.000000 0.000000
0.000000 0.000000 0.000000
0.000000 0.000000 0.000000
