Si2                                     
   1.00000000000000     
     3.8674568027633498    0.0000000000000000    0.0000000000000000
     1.9337284013816749    3.3493168364629144    0.0000000150577336
    -0.0000000000000000   -2.2328758625821417    3.1577657190756709
   Si
     2
Direct
 -0.0000000000000000  0.0000000000000000 -0.0000000000000000
  0.7500000000000000  0.5000000000000000  0.7500000000000000
 
  0.00000000E+00  0.00000000E+00  0.00000000E+00
  0.00000000E+00  0.00000000E+00  0.00000000E+00
