pymatgen 4.7.6+ generated KPOINTS with grid density = 1198 / atom
0
Gamma
4 4 2
