Si2                                     
   1.00000000000000     
     3.2368540000000001    0.0000000000000000    1.8687990000000001
     1.0789510000000000    3.0517349999999999    1.8687990000000001
     0.0000000000000000    0.0000000000000000    3.7375970000000001
   Si
     2
Direct
  0.8750000000000000  0.8750000000000000  0.8750000000000000
  0.1250000000000000  0.1250000000000000  0.1250000000000000
 
  0.00000000E+00  0.00000000E+00  0.00000000E+00
  0.00000000E+00  0.00000000E+00  0.00000000E+00
