ADDGRID = True
ALGO = All
EDIFF = 1e-05
EDIFFG = -0.02
ENCUT = 680
IBRION = 2
ICHARG = 1
ISIF = 3
ISMEAR = -5
ISPIN = 2
ISTART = 1
KSPACING = 0.44
LAECHG = True
LASPH = True
LCHARG = True
LELF = True
LMIXTAU = True
LORBIT = 11
LREAL = False
LVTOT = True
MAGMOM = 2*0.6
METAGGA = Scan
NELM = 200
NSW = 99
PREC = Accurate
SIGMA = 0.05
