Li1 F1
1.0
2.500578 0.000000 1.443710
0.833526 2.357568 1.443710
0.000000 0.000000 2.887419
Li F
1 1
direct
0.000000 0.000000 0.000000 Li
0.500000 0.500000 0.500000 F
