ADDGRID = True
ALGO = All
EDIFF = 1e-05
EDIFFG = -0.05
ENCUT = 680
IBRION = 2
ICHARG = 1
ISIF = 3
ISMEAR = -5
ISPIN = 2
ISTART = 0
KSPACING = 0.3512758444747967
LAECHG = True
LASPH = True
LCHARG = True
LELF = True
LMIXTAU = True
LORBIT = 11
LREAL = False
LVTOT = True
LWAVE = True
MAGMOM = 2*0.6
METAGGA = None
NELM = 200
NSW = 0
PREC = Accurate
SIGMA = 0.05
