ADDGRID = True
ALGO = All
EDIFF = 1e-05
EDIFFG = -0.05
ENCUT = 680
IBRION = 2
ICHARG = 2
ISIF = 3
ISMEAR = 2
ISPIN = 2
KSPACING = 0.22
LAECHG = True
LASPH = True
LCHARG = True
LELF = True
LMIXTAU = True
LORBIT = 11
LREAL = False
LVTOT = True
LWAVE = False
MAGMOM = 2*0.0
METAGGA = None
NELM = 200
NSW = 99
PREC = Accurate
SIGMA = 0.2
