Li1 H1
1.0
2.460046 0.000000 1.420308
0.820015 2.319354 1.420308
0.000000 0.000000 2.840617
Li H
1 1
direct
0.000000 0.000000 0.000000 Li
0.500000 0.500000 0.500000 H
