Si2
1.0
3.867457 0.000000 0.000000
1.933728 3.349317 0.000000
0.000000 -2.232876 3.157766
Si
2
direct
0.998898 0.001800 0.001004 Si
0.751102 0.498200 0.748996 Si
