ALGO = Fast
EDIFF = 0.0001
ENCUT = 520
IBRION = -1
ICHARG = 11
ISIF = 3
ISMEAR = 0
ISPIN = 1
ISYM = 0
LCHARG = False
LORBIT = 11
LREAL = Auto
LWAVE = False
MAGMOM = 2*0.0
NBANDS = 10
NEDOS = 601
NELM = 100
NSW = 0
PREC = Accurate
SIGMA = 0.001
