Non SCF run on uniform grid
220
Reciprocal
0.0 0.0 0.0 1
0.0526315789474 0.0 0.0 8
0.105263157895 0.0 0.0 8
0.157894736842 0.0 0.0 8
0.210526315789 0.0 0.0 8
0.263157894737 0.0 0.0 8
0.315789473684 0.0 0.0 8
0.368421052632 0.0 0.0 8
0.421052631579 0.0 0.0 8
0.473684210526 0.0 0.0 8
0.0 0.0526315789474 0.0 6
0.105263157895 0.0526315789474 0.0 12
0.157894736842 0.0526315789474 0.0 24
0.210526315789 0.0526315789474 0.0 24
0.263157894737 0.0526315789474 0.0 24
0.315789473684 0.0526315789474 0.0 24
0.368421052632 0.0526315789474 0.0 24
0.421052631579 0.0526315789474 0.0 24
0.473684210526 0.0526315789474 0.0 24
-0.473684210526 0.0526315789474 0.0 24
-0.421052631579 0.0526315789474 0.0 24
-0.368421052632 0.0526315789474 0.0 24
-0.315789473684 0.0526315789474 0.0 24
-0.263157894737 0.0526315789474 0.0 24
-0.210526315789 0.0526315789474 0.0 24
-0.157894736842 0.0526315789474 0.0 24
-0.105263157895 0.0526315789474 0.0 24
-0.0526315789474 0.0526315789474 0.0 24
0.0 0.105263157895 0.0 6
0.210526315789 0.105263157895 0.0 12
0.263157894737 0.105263157895 0.0 24
0.315789473684 0.105263157895 0.0 24
0.368421052632 0.105263157895 0.0 24
0.421052631579 0.105263157895 0.0 24
0.473684210526 0.105263157895 0.0 24
-0.473684210526 0.105263157895 0.0 24
-0.421052631579 0.105263157895 0.0 24
-0.368421052632 0.105263157895 0.0 24
-0.315789473684 0.105263157895 0.0 24
-0.263157894737 0.105263157895 0.0 24
-0.210526315789 0.105263157895 0.0 24
-0.157894736842 0.105263157895 0.0 24
-0.105263157895 0.105263157895 0.0 24
-0.0526315789474 0.105263157895 0.0 24
0.0 0.157894736842 0.0 6
0.315789473684 0.157894736842 0.0 12
0.368421052632 0.157894736842 0.0 24
0.421052631579 0.157894736842 0.0 24
0.473684210526 0.157894736842 0.0 24
-0.473684210526 0.157894736842 0.0 24
-0.421052631579 0.157894736842 0.0 24
-0.368421052632 0.157894736842 0.0 24
-0.315789473684 0.157894736842 0.0 24
-0.263157894737 0.157894736842 0.0 24
-0.210526315789 0.157894736842 0.0 24
-0.157894736842 0.157894736842 0.0 24
-0.105263157895 0.157894736842 0.0 24
-0.0526315789474 0.157894736842 0.0 24
0.0 0.210526315789 0.0 6
0.421052631579 0.210526315789 0.0 12
0.473684210526 0.210526315789 0.0 24
-0.473684210526 0.210526315789 0.0 24
-0.421052631579 0.210526315789 0.0 24
-0.368421052632 0.210526315789 0.0 24
-0.315789473684 0.210526315789 0.0 24
-0.263157894737 0.210526315789 0.0 24
-0.210526315789 0.210526315789 0.0 24
-0.157894736842 0.210526315789 0.0 24
-0.105263157895 0.210526315789 0.0 24
-0.0526315789474 0.210526315789 0.0 24
0.0 0.263157894737 0.0 6
-0.473684210526 0.263157894737 0.0 12
-0.421052631579 0.263157894737 0.0 24
-0.368421052632 0.263157894737 0.0 24
-0.315789473684 0.263157894737 0.0 24
-0.263157894737 0.263157894737 0.0 24
-0.210526315789 0.263157894737 0.0 24
-0.157894736842 0.263157894737 0.0 24
-0.105263157895 0.263157894737 0.0 24
-0.0526315789474 0.263157894737 0.0 24
0.0 0.315789473684 0.0 6
-0.368421052632 0.315789473684 0.0 12
-0.315789473684 0.315789473684 0.0 24
-0.263157894737 0.315789473684 0.0 24
-0.210526315789 0.315789473684 0.0 24
-0.157894736842 0.315789473684 0.0 24
-0.105263157895 0.315789473684 0.0 24
-0.0526315789474 0.315789473684 0.0 24
0.0 0.368421052632 0.0 6
-0.263157894737 0.368421052632 0.0 12
-0.210526315789 0.368421052632 0.0 24
-0.157894736842 0.368421052632 0.0 24
-0.105263157895 0.368421052632 0.0 24
-0.0526315789474 0.368421052632 0.0 24
0.0 0.421052631579 0.0 6
-0.157894736842 0.421052631579 0.0 12
-0.105263157895 0.421052631579 0.0 24
-0.0526315789474 0.421052631579 0.0 24
0.0 0.473684210526 0.0 6
-0.0526315789474 0.473684210526 0.0 12
0.157894736842 0.0526315789474 0.0526315789474 24
0.210526315789 0.0526315789474 0.0526315789474 48
0.263157894737 0.0526315789474 0.0526315789474 48
0.315789473684 0.0526315789474 0.0526315789474 48
0.368421052632 0.0526315789474 0.0526315789474 48
0.421052631579 0.0526315789474 0.0526315789474 48
0.473684210526 0.0526315789474 0.0526315789474 48
-0.473684210526 0.0526315789474 0.0526315789474 48
0.263157894737 0.105263157895 0.0526315789474 24
0.315789473684 0.105263157895 0.0526315789474 48
0.368421052632 0.105263157895 0.0526315789474 48
0.421052631579 0.105263157895 0.0526315789474 48
0.473684210526 0.105263157895 0.0526315789474 48
-0.473684210526 0.105263157895 0.0526315789474 48
-0.421052631579 0.105263157895 0.0526315789474 48
-0.368421052632 0.105263157895 0.0526315789474 48
-0.315789473684 0.105263157895 0.0526315789474 48
-0.263157894737 0.105263157895 0.0526315789474 48
-0.210526315789 0.105263157895 0.0526315789474 48
-0.157894736842 0.105263157895 0.0526315789474 48
-0.105263157895 0.105263157895 0.0526315789474 48
-0.0526315789474 0.105263157895 0.0526315789474 24
0.368421052632 0.157894736842 0.0526315789474 24
0.421052631579 0.157894736842 0.0526315789474 48
0.473684210526 0.157894736842 0.0526315789474 48
-0.473684210526 0.157894736842 0.0526315789474 48
-0.421052631579 0.157894736842 0.0526315789474 48
-0.368421052632 0.157894736842 0.0526315789474 48
-0.315789473684 0.157894736842 0.0526315789474 48
-0.263157894737 0.157894736842 0.0526315789474 48
-0.210526315789 0.157894736842 0.0526315789474 48
-0.157894736842 0.157894736842 0.0526315789474 48
-0.105263157895 0.157894736842 0.0526315789474 48
-0.0526315789474 0.157894736842 0.0526315789474 24
0.473684210526 0.210526315789 0.0526315789474 24
-0.473684210526 0.210526315789 0.0526315789474 48
-0.421052631579 0.210526315789 0.0526315789474 48
-0.368421052632 0.210526315789 0.0526315789474 48
-0.315789473684 0.210526315789 0.0526315789474 48
-0.263157894737 0.210526315789 0.0526315789474 48
-0.210526315789 0.210526315789 0.0526315789474 48
-0.157894736842 0.210526315789 0.0526315789474 48
-0.105263157895 0.210526315789 0.0526315789474 48
-0.0526315789474 0.210526315789 0.0526315789474 24
-0.421052631579 0.263157894737 0.0526315789474 24
-0.368421052632 0.263157894737 0.0526315789474 48
-0.315789473684 0.263157894737 0.0526315789474 48
-0.263157894737 0.263157894737 0.0526315789474 48
-0.210526315789 0.263157894737 0.0526315789474 48
-0.157894736842 0.263157894737 0.0526315789474 48
-0.105263157895 0.263157894737 0.0526315789474 48
-0.0526315789474 0.263157894737 0.0526315789474 24
-0.315789473684 0.315789473684 0.0526315789474 24
-0.263157894737 0.315789473684 0.0526315789474 48
-0.210526315789 0.315789473684 0.0526315789474 48
-0.157894736842 0.315789473684 0.0526315789474 48
-0.105263157895 0.315789473684 0.0526315789474 48
-0.0526315789474 0.315789473684 0.0526315789474 24
-0.210526315789 0.368421052632 0.0526315789474 24
-0.157894736842 0.368421052632 0.0526315789474 48
-0.105263157895 0.368421052632 0.0526315789474 48
-0.0526315789474 0.368421052632 0.0526315789474 24
-0.105263157895 0.421052631579 0.0526315789474 24
-0.0526315789474 0.421052631579 0.0526315789474 24
0.315789473684 0.105263157895 0.105263157895 24
0.368421052632 0.105263157895 0.105263157895 48
0.421052631579 0.105263157895 0.105263157895 48
0.473684210526 0.105263157895 0.105263157895 48
-0.473684210526 0.105263157895 0.105263157895 48
-0.421052631579 0.105263157895 0.105263157895 48
0.421052631579 0.157894736842 0.105263157895 24
0.473684210526 0.157894736842 0.105263157895 48
-0.473684210526 0.157894736842 0.105263157895 48
-0.421052631579 0.157894736842 0.105263157895 48
-0.368421052632 0.157894736842 0.105263157895 48
-0.315789473684 0.157894736842 0.105263157895 48
-0.263157894737 0.157894736842 0.105263157895 48
-0.210526315789 0.157894736842 0.105263157895 48
-0.157894736842 0.157894736842 0.105263157895 48
-0.105263157895 0.157894736842 0.105263157895 24
-0.473684210526 0.210526315789 0.105263157895 24
-0.421052631579 0.210526315789 0.105263157895 48
-0.368421052632 0.210526315789 0.105263157895 48
-0.315789473684 0.210526315789 0.105263157895 48
-0.263157894737 0.210526315789 0.105263157895 48
-0.210526315789 0.210526315789 0.105263157895 48
-0.157894736842 0.210526315789 0.105263157895 48
-0.105263157895 0.210526315789 0.105263157895 24
-0.368421052632 0.263157894737 0.105263157895 24
-0.315789473684 0.263157894737 0.105263157895 48
-0.263157894737 0.263157894737 0.105263157895 48
-0.210526315789 0.263157894737 0.105263157895 48
-0.157894736842 0.263157894737 0.105263157895 48
-0.105263157895 0.263157894737 0.105263157895 24
-0.263157894737 0.315789473684 0.105263157895 24
-0.210526315789 0.315789473684 0.105263157895 48
-0.157894736842 0.315789473684 0.105263157895 48
-0.105263157895 0.315789473684 0.105263157895 24
-0.157894736842 0.368421052632 0.105263157895 24
-0.105263157895 0.368421052632 0.105263157895 24
0.473684210526 0.157894736842 0.157894736842 24
-0.473684210526 0.157894736842 0.157894736842 48
-0.421052631579 0.157894736842 0.157894736842 48
-0.368421052632 0.157894736842 0.157894736842 48
-0.421052631579 0.210526315789 0.157894736842 24
-0.368421052632 0.210526315789 0.157894736842 48
-0.315789473684 0.210526315789 0.157894736842 48
-0.263157894737 0.210526315789 0.157894736842 48
-0.210526315789 0.210526315789 0.157894736842 48
-0.157894736842 0.210526315789 0.157894736842 24
-0.315789473684 0.263157894737 0.157894736842 24
-0.263157894737 0.263157894737 0.157894736842 48
-0.210526315789 0.263157894737 0.157894736842 48
-0.157894736842 0.263157894737 0.157894736842 24
-0.210526315789 0.315789473684 0.157894736842 24
-0.157894736842 0.315789473684 0.157894736842 24
-0.368421052632 0.210526315789 0.210526315789 24
-0.315789473684 0.210526315789 0.210526315789 48
-0.263157894737 0.263157894737 0.210526315789 24
-0.210526315789 0.263157894737 0.210526315789 24
