Ba1 Ti1 O3                              
   1.00000000000000     
     4.0295240000000003    0.0000000000000000    0.0000000000000000
     0.0000000000000000    4.0295240000000003    0.0000000000000000
     0.0000000000000000    0.0000000000000000    4.0533440000000001
   Ba   Ti   O 
     1     1     3
Direct
  0.0000000000000000  0.0000000000000000  0.0047410000000028
  0.5000000000000000  0.5000000000000000  0.5068059999999974
  0.0000000000000000  0.5000000000000000  0.5016019999999983
  0.5000000000000000  0.0000000000000000  0.5016019999999983
  0.5000000000000000  0.5000000000000000  0.9992480000000015
 
  0.00000000E+00  0.00000000E+00  0.00000000E+00
  0.00000000E+00  0.00000000E+00  0.00000000E+00
  0.00000000E+00  0.00000000E+00  0.00000000E+00
  0.00000000E+00  0.00000000E+00  0.00000000E+00
  0.00000000E+00  0.00000000E+00  0.00000000E+00
