pymatgen generated KPOINTS with grid density = 1884 / atom
0
Monkhorst
8 8 8
