Si2                                     
   1.0000000000000000     
     3.3484700339106626   -0.0000000010329380    1.9332401021420222
     1.1161563413594999    3.1569677232619759    1.9332401021420220
     0.0000000039909649    0.0000000028220385    3.8664791904609199
   Si
     2
Direct
  0.8750000000000000  0.8750000000000000  0.8750000000000000
  0.1250000000000000  0.1250000000000000  0.1250000000000000

  0.00000000E+00  0.00000000E+00  0.00000000E+00
  0.00000000E+00  0.00000000E+00  0.00000000E+00
