Si2                                     
   1.00000000000000     
     3.3484700339291424   -0.0000000010329380    1.9332401021526917
     1.1161563413656599    3.1569677232793993    1.9332401021526913
     0.0000000039909649    0.0000000028220385    3.8664791904822589
   Si
     2
Direct
  0.8750000000000000  0.8750000000000000  0.8750000000000000
  0.1250000000000000  0.1250000000000000  0.1250000000000000
 
  0.00000000E+00  0.00000000E+00  0.00000000E+00
  0.00000000E+00  0.00000000E+00  0.00000000E+00
