$molecule
 0 2
 O      0.8732793359      0.1105676875     -0.0034358814
 C      1.0834837767     -1.2149291741     -0.0069427869
 C     -0.4933492752      0.3072357776      0.0022456850
 O      2.1533900453     -1.7528358221     -0.0118478301
 O     -0.0990512083     -1.8490706981     -0.0039108382
 C     -1.0819996023     -0.8805252011      0.0016008980
 Li      4.0877275066     -2.1547112309     -0.0156276259
 H     -0.8519144546      1.3213434938      0.0059053041
 H     -2.1062990185     -1.2096627557      0.0049814044
$end

$rem
   job_type = opt
   basis = 6-311++g**
   max_scf_cycles = 200
   gen_scfman = true
   scf_algorithm = diis
   method = wb97xd
   geom_opt_max_cycles = 200
   sym_ignore = true
$end
