$molecule
 0 2
 O      0.8354331412      0.1495270055     -0.0030648403
 C      1.1064883264     -1.1633544579     -0.0065717458
 C     -0.5371321278      0.2831181045      0.0018746439
 O      2.2008833092     -1.6456049372     -0.0111057479
 O     -0.0445081631     -1.8505548626     -0.0039108382
 C     -1.0704973275     -0.9291315884      0.0012298569
 Li      3.9660260179     -2.4289106216     -0.0174828315
 H     -0.9417064066      1.2786737645      0.0051632219
 H     -2.0769867697     -1.3057624068      0.0038682810
$end

$rem
   job_type = freq
   basis = 6-311++g**
   max_scf_cycles = 200
   gen_scfman = true
   scf_algorithm = diis
   method = wb97xd
   geom_opt_max_cycles = 200
   sym_ignore = true
$end
