$molecule
 0 2
 O      0.8010000000      0.1690000000     -0.0030000000
 C      1.0790000000     -1.1530000000     -0.0060000000
 C     -0.5330000000      0.2830000000      0.0020000000
 O      2.2120000000     -1.6520000000     -0.0110000000
 O     -0.0850000000     -1.8400000000     -0.0040000000
 C     -1.0690000000     -0.9320000000      0.0010000000
 Li      4.0510000000     -2.4620000000     -0.0180000000
 H     -0.9340000000      1.2920000000      0.0050000000
 H     -2.0840000000     -1.3170000000      0.0040000000
$end

$rem
   job_type = opt
   basis = 6-311++g**
   max_scf_cycles = 200
   gen_scfman = true
   scf_algorithm = diis
   method = wb97xd
   geom_opt_max_cycles = 200
   sym_ignore = true
$end
