Non SCF run on uniform grid
195
Reciprocal
0.0 0.0 0.0 1
0.0555555555556 0.0 0.0 8
0.111111111111 0.0 0.0 8
0.166666666667 0.0 0.0 8
0.222222222222 0.0 0.0 8
0.277777777778 0.0 0.0 8
0.333333333333 0.0 0.0 8
0.388888888889 0.0 0.0 8
0.444444444444 0.0 0.0 8
0.5 0.0 0.0 4
0.0555555555556 0.0555555555556 0.0 6
0.111111111111 0.0555555555556 0.0 24
0.166666666667 0.0555555555556 0.0 24
0.222222222222 0.0555555555556 0.0 24
0.277777777778 0.0555555555556 0.0 24
0.333333333333 0.0555555555556 0.0 24
0.388888888889 0.0555555555556 0.0 24
0.444444444444 0.0555555555556 0.0 24
0.5 0.0555555555556 0.0 24
-0.444444444444 0.0555555555556 0.0 24
-0.388888888889 0.0555555555556 0.0 24
-0.333333333333 0.0555555555556 0.0 24
-0.277777777778 0.0555555555556 0.0 24
-0.222222222222 0.0555555555556 0.0 24
-0.166666666667 0.0555555555556 0.0 24
-0.111111111111 0.0555555555556 0.0 24
-0.0555555555556 0.0555555555556 0.0 12
0.111111111111 0.111111111111 0.0 6
0.166666666667 0.111111111111 0.0 24
0.222222222222 0.111111111111 0.0 24
0.277777777778 0.111111111111 0.0 24
0.333333333333 0.111111111111 0.0 24
0.388888888889 0.111111111111 0.0 24
0.444444444444 0.111111111111 0.0 24
0.5 0.111111111111 0.0 24
-0.444444444444 0.111111111111 0.0 24
-0.388888888889 0.111111111111 0.0 24
-0.333333333333 0.111111111111 0.0 24
-0.277777777778 0.111111111111 0.0 24
-0.222222222222 0.111111111111 0.0 24
-0.166666666667 0.111111111111 0.0 24
-0.111111111111 0.111111111111 0.0 12
0.166666666667 0.166666666667 0.0 6
0.222222222222 0.166666666667 0.0 24
0.277777777778 0.166666666667 0.0 24
0.333333333333 0.166666666667 0.0 24
0.388888888889 0.166666666667 0.0 24
0.444444444444 0.166666666667 0.0 24
0.5 0.166666666667 0.0 24
-0.444444444444 0.166666666667 0.0 24
-0.388888888889 0.166666666667 0.0 24
-0.333333333333 0.166666666667 0.0 24
-0.277777777778 0.166666666667 0.0 24
-0.222222222222 0.166666666667 0.0 24
-0.166666666667 0.166666666667 0.0 12
0.222222222222 0.222222222222 0.0 6
0.277777777778 0.222222222222 0.0 24
0.333333333333 0.222222222222 0.0 24
0.388888888889 0.222222222222 0.0 24
0.444444444444 0.222222222222 0.0 24
0.5 0.222222222222 0.0 24
-0.444444444444 0.222222222222 0.0 24
-0.388888888889 0.222222222222 0.0 24
-0.333333333333 0.222222222222 0.0 24
-0.277777777778 0.222222222222 0.0 24
-0.222222222222 0.222222222222 0.0 12
0.277777777778 0.277777777778 0.0 6
0.333333333333 0.277777777778 0.0 24
0.388888888889 0.277777777778 0.0 24
0.444444444444 0.277777777778 0.0 24
0.5 0.277777777778 0.0 24
-0.444444444444 0.277777777778 0.0 24
-0.388888888889 0.277777777778 0.0 24
-0.333333333333 0.277777777778 0.0 24
-0.277777777778 0.277777777778 0.0 12
0.333333333333 0.333333333333 0.0 6
0.388888888889 0.333333333333 0.0 24
0.444444444444 0.333333333333 0.0 24
0.5 0.333333333333 0.0 24
-0.444444444444 0.333333333333 0.0 24
-0.388888888889 0.333333333333 0.0 24
-0.333333333333 0.333333333333 0.0 12
0.388888888889 0.388888888889 0.0 6
0.444444444444 0.388888888889 0.0 24
0.5 0.388888888889 0.0 24
-0.444444444444 0.388888888889 0.0 24
-0.388888888889 0.388888888889 0.0 12
0.444444444444 0.444444444444 0.0 6
0.5 0.444444444444 0.0 24
-0.444444444444 0.444444444444 0.0 12
0.5 0.5 0.0 3
0.166666666667 0.111111111111 0.0555555555556 24
0.222222222222 0.111111111111 0.0555555555556 48
0.277777777778 0.111111111111 0.0555555555556 48
0.333333333333 0.111111111111 0.0555555555556 48
0.388888888889 0.111111111111 0.0555555555556 48
0.444444444444 0.111111111111 0.0555555555556 48
0.5 0.111111111111 0.0555555555556 48
-0.444444444444 0.111111111111 0.0555555555556 24
0.222222222222 0.166666666667 0.0555555555556 24
0.277777777778 0.166666666667 0.0555555555556 48
0.333333333333 0.166666666667 0.0555555555556 48
0.388888888889 0.166666666667 0.0555555555556 48
0.444444444444 0.166666666667 0.0555555555556 48
0.5 0.166666666667 0.0555555555556 48
-0.444444444444 0.166666666667 0.0555555555556 48
-0.388888888889 0.166666666667 0.0555555555556 48
-0.333333333333 0.166666666667 0.0555555555556 48
-0.277777777778 0.166666666667 0.0555555555556 48
-0.222222222222 0.166666666667 0.0555555555556 48
-0.166666666667 0.166666666667 0.0555555555556 48
-0.111111111111 0.166666666667 0.0555555555556 24
0.277777777778 0.222222222222 0.0555555555556 24
0.333333333333 0.222222222222 0.0555555555556 48
0.388888888889 0.222222222222 0.0555555555556 48
0.444444444444 0.222222222222 0.0555555555556 48
0.5 0.222222222222 0.0555555555556 48
-0.444444444444 0.222222222222 0.0555555555556 48
-0.388888888889 0.222222222222 0.0555555555556 48
-0.333333333333 0.222222222222 0.0555555555556 48
-0.277777777778 0.222222222222 0.0555555555556 48
-0.222222222222 0.222222222222 0.0555555555556 48
-0.166666666667 0.222222222222 0.0555555555556 24
0.333333333333 0.277777777778 0.0555555555556 24
0.388888888889 0.277777777778 0.0555555555556 48
0.444444444444 0.277777777778 0.0555555555556 48
0.5 0.277777777778 0.0555555555556 48
-0.444444444444 0.277777777778 0.0555555555556 48
-0.388888888889 0.277777777778 0.0555555555556 48
-0.333333333333 0.277777777778 0.0555555555556 48
-0.277777777778 0.277777777778 0.0555555555556 48
-0.222222222222 0.277777777778 0.0555555555556 24
0.388888888889 0.333333333333 0.0555555555556 24
0.444444444444 0.333333333333 0.0555555555556 48
0.5 0.333333333333 0.0555555555556 48
-0.444444444444 0.333333333333 0.0555555555556 48
-0.388888888889 0.333333333333 0.0555555555556 48
-0.333333333333 0.333333333333 0.0555555555556 48
-0.277777777778 0.333333333333 0.0555555555556 24
0.444444444444 0.388888888889 0.0555555555556 24
0.5 0.388888888889 0.0555555555556 48
-0.444444444444 0.388888888889 0.0555555555556 48
-0.388888888889 0.388888888889 0.0555555555556 48
-0.333333333333 0.388888888889 0.0555555555556 24
0.5 0.444444444444 0.0555555555556 24
-0.444444444444 0.444444444444 0.0555555555556 48
-0.388888888889 0.444444444444 0.0555555555556 24
-0.444444444444 0.5 0.0555555555556 12
0.333333333333 0.222222222222 0.111111111111 24
0.388888888889 0.222222222222 0.111111111111 48
0.444444444444 0.222222222222 0.111111111111 48
0.5 0.222222222222 0.111111111111 48
-0.444444444444 0.222222222222 0.111111111111 48
-0.388888888889 0.222222222222 0.111111111111 24
0.388888888889 0.277777777778 0.111111111111 24
0.444444444444 0.277777777778 0.111111111111 48
0.5 0.277777777778 0.111111111111 48
-0.444444444444 0.277777777778 0.111111111111 48
-0.388888888889 0.277777777778 0.111111111111 48
-0.333333333333 0.277777777778 0.111111111111 48
-0.277777777778 0.277777777778 0.111111111111 48
-0.222222222222 0.277777777778 0.111111111111 48
-0.166666666667 0.277777777778 0.111111111111 24
0.444444444444 0.333333333333 0.111111111111 24
0.5 0.333333333333 0.111111111111 48
-0.444444444444 0.333333333333 0.111111111111 48
-0.388888888889 0.333333333333 0.111111111111 48
-0.333333333333 0.333333333333 0.111111111111 48
-0.277777777778 0.333333333333 0.111111111111 48
-0.222222222222 0.333333333333 0.111111111111 24
0.5 0.388888888889 0.111111111111 24
-0.444444444444 0.388888888889 0.111111111111 48
-0.388888888889 0.388888888889 0.111111111111 48
-0.333333333333 0.388888888889 0.111111111111 48
-0.277777777778 0.388888888889 0.111111111111 24
-0.444444444444 0.444444444444 0.111111111111 24
-0.388888888889 0.444444444444 0.111111111111 48
-0.333333333333 0.444444444444 0.111111111111 24
-0.388888888889 0.5 0.111111111111 12
0.5 0.333333333333 0.166666666667 24
-0.444444444444 0.333333333333 0.166666666667 48
-0.388888888889 0.333333333333 0.166666666667 48
-0.333333333333 0.333333333333 0.166666666667 24
-0.444444444444 0.388888888889 0.166666666667 24
-0.388888888889 0.388888888889 0.166666666667 48
-0.333333333333 0.388888888889 0.166666666667 48
-0.277777777778 0.388888888889 0.166666666667 48
-0.222222222222 0.388888888889 0.166666666667 24
-0.388888888889 0.444444444444 0.166666666667 24
-0.333333333333 0.444444444444 0.166666666667 48
-0.277777777778 0.444444444444 0.166666666667 24
-0.333333333333 0.5 0.166666666667 12
-0.333333333333 0.444444444444 0.222222222222 24
-0.277777777778 0.444444444444 0.222222222222 24
-0.277777777778 0.5 0.222222222222 12
