ADDGRID = True
ALGO = Normal
EDIFF = 1e-06
ENCUT = 600
IBRION = -1
ICHARG = 0
ISIF = 2
ISMEAR = -5
ISPIN = 2
ISTART = 1
LAECHG = True
LCHARG = True
LORBIT = 11
LREAL = False
LVHAR = True
LWAVE = False
MAGMOM = 64*0.6
NELM = 100
NSW = 1
PREC = Accurate
SIGMA = 0.05
