Y2 Mg1 P2 O8
1.0
-3.491137 3.491137 3.035854
3.491137 -3.491137 3.035854
3.491137 3.491137 -3.035854
Y Mg P O
2 1 2 8
direct
0.500000 0.500000 0.000000 Y
0.750000 0.250000 0.500000 Y
0.760417 0.239583 0.000000 Mg
0.250000 0.750000 0.500000 P
0.000000 0.000000 0.000000 P
0.840116 0.666168 0.826052 O
0.264065 0.590116 0.673948 O
0.916168 0.590116 0.326052 O
0.840116 0.014065 0.173948 O
0.985935 0.159884 0.826052 O
0.409884 0.083832 0.673948 O
0.409884 0.735935 0.326052 O
0.333832 0.159884 0.173948 O
