Li1 F1
1.0
0.000000 2.041714 2.041714
2.041714 0.000000 2.041714
2.041714 2.041714 0.000000
Li F
1 1
direct
0.000000 0.000000 0.000000 Li
0.500000 0.500000 0.500000 F
