$molecule
 0 2
 O      1.0373992184      0.4315429895      0.0060116476
 O     -1.1104547915      0.4705692662      0.0157630022
 O     -0.0590924811     -1.5383634088      0.0019637947
 C      2.2940186626     -0.2573793222     -0.0498461028
 C     -2.3571207727     -0.1193926603      0.0195949940
 C      3.3725479314      0.7496679566      0.0373307552
 C     -3.4414372593      0.6351773390     -0.0172732643
 C     -0.0400664112     -0.3384659407      0.0076454372
 H      2.3461005300     -0.9894359336      0.7670441516
 H      2.3333174846     -0.8364516769     -0.9855847267
 H     -2.3466514427     -1.2021463683      0.0541102323
 H      4.4064426351      0.4049331983      0.1123650130
 H      3.1369561679      1.8360374819     -0.0410301417
 H     -4.4154437790      0.1644100701     -0.0105833136
 H     -3.3844297073      1.7175613913     -0.0534061085
$end

$rem
   job_type = opt
   basis = 6-311++g*
   max_scf_cycles = 200
   gen_scfman = true
   scf_algorithm = gdm
   method = wb97xd
   geom_opt_max_cycles = 200
$end
