$molecule
 0 2
 O      1.0369634842      0.4382480106      0.0168171675
 O     -1.1121644231      0.4736826026      0.0014366156
 O     -0.0567434884     -1.5325792342      0.0038137142
 C      2.2941666314     -0.2590964448      0.0159661059
 C     -2.3567927281     -0.1204242270     -0.0070485815
 C      3.3788033604      0.7409631417     -0.0287682244
 C     -3.4442827702      0.6299624323     -0.0072714225
 C     -0.0394811148     -0.3325083862      0.0068567423
 H      2.3545706829     -0.8932583191      0.9063957897
 H      2.3128376776     -0.9324242900     -0.8529789978
 H     -2.3419117527     -1.2031182674     -0.0132323320
 H      4.3835996433      0.4494235487      0.2485384414
 H      3.2115107716      1.7115524409     -0.4772667395
 H     -4.4164246836      0.1549970127     -0.0141382027
 H     -3.3927180739      1.7124471229     -0.0003047962
$end

$rem
   job_type = freq
   basis = 6-311++g*
   max_scf_cycles = 200
   gen_scfman = true
   scf_algorithm = gdm
   method = wb97xd
   geom_opt_max_cycles = 200
$end
