$molecule
 0 2
 O      1.0415780514      0.4073567382      0.0103077132
 O     -1.1059102654      0.4667790602      0.0418935357
 O     -0.0762719728     -1.5403401365     -0.1848804197
 C      2.2907306621     -0.2926178254     -0.1055639893
 C     -2.3583703464     -0.1089627381     -0.0003710775
 C      3.3827166096      0.6978373867     -0.0292268793
 C     -3.4354061791      0.6535954351      0.0645999638
 C     -0.0439176183     -0.3474795075     -0.0574317501
 H      2.3610804395     -1.0441734387      0.6881194014
 H      2.2910903600     -0.8424271086     -1.0576852071
 H     -2.3582952956     -1.1883118647     -0.0870918511
 H      4.3962880167      0.3612171082      0.1461431823
 H      3.1993697928      1.7354608528     -0.2752312204
 H     -4.4141334298      0.1933426837      0.0337190565
 H     -3.3683883511      1.7319314033      0.1496121575
$end

$rem
   job_type = freq
   basis = 6-311++g*
   max_scf_cycles = 200
   gen_scfman = true
   scf_algorithm = gdm
   method = wb97xd
   geom_opt_max_cycles = 200
$end
