$molecule
 0 2
 O      1.0349059008      0.4379157863      0.0399473534
 O     -1.1136589592      0.4722671399      0.0307222139
 O     -0.0569225954     -1.5306546598     -0.0756926114
 C      2.2933766059     -0.2528075280     -0.0177626524
 C     -2.3584009843     -0.1207029591     -0.0012807144
 C      3.3735528867      0.7521037693      0.0320796023
 C     -3.4453269701      0.6304260059      0.0104924951
 C     -0.0406658653     -0.3325398395     -0.0084633996
 H      2.3545760341     -0.9644820013      0.8125748577
 H      2.3178721076     -0.8473016437     -0.9423047952
 H     -2.3440492285     -1.2028959341     -0.0352140132
 H      4.3870917090      0.4357582266      0.2419094152
 H      3.1834535322      1.7763184364     -0.2605630845
 H     -4.4178875216      0.1568493131     -0.0125426249
 H     -3.3927458685      1.7124058102      0.0432642293
$end

$rem
   job_type = freq
   basis = 6-311++g*
   max_scf_cycles = 200
   gen_scfman = true
   scf_algorithm = gdm
   method = wb97xd
   geom_opt_max_cycles = 200
$end
