$molecule
 0 2
 O      1.0779352922      0.4087998860      0.0000159844
 O     -1.0779360340      0.4087994890      0.0000134467
 O      0.0000001906     -1.5728550611     -0.0000038293
 C      2.3378449908     -0.2808963917      0.0000126462
 C     -2.3378435749     -0.2808955684      0.0000056470
 C      3.4279169549      0.7642371238     -0.0000124127
 C     -3.4279174520      0.7642366136     -0.0000072696
 C      0.0000003750     -0.3689053184     -0.0000286356
 H      2.3882776626     -0.9218045668      0.8834030220
 H      2.3882540516     -0.9218317127     -0.8833585025
 H     -2.3882556324     -0.9218230244     -0.8833714492
 H      4.4045968651      0.2736482674     -0.0000215776
 H      3.3637001568      1.3988332854     -0.8862525014
 H     -4.4045964871      0.2736460975     -0.0000186087
 H     -3.3637323660      1.3988413380      0.8862290354
$end

$rem
   job_type = opt
   basis = 6-311++g*
   max_scf_cycles = 200
   gen_scfman = true
   scf_algorithm = gdm
   method = wb97xd
   geom_opt_max_cycles = 200
$end
