$molecule
 0 2
 O      1.0352522496      0.4372682397      0.0532449612
 O     -1.1133174165      0.4720005788      0.0279291588
 O     -0.0569455123     -1.5326381586     -0.0538573941
 C      2.2947343188     -0.2588106348      0.0310230554
 C     -2.3578364289     -0.1215396291     -0.0075999442
 C      3.3768418690      0.7460896752     -0.0285096214
 C     -3.4450155407      0.6294520888      0.0013337987
 C     -0.0400664112     -0.3334563469      0.0033514996
 H      2.3718641556     -0.8956849626      0.9194789364
 H      2.2996816400     -0.9287713353     -0.8424534733
 H     -2.3430731613     -1.2042933371     -0.0410720513
 H      4.3706598217      0.4714892311      0.3327871432
 H      3.2328541077      1.6843183533     -0.6135551553
 H     -4.4175907478      0.1551065387     -0.0241807826
 H     -3.3930175825      1.7118361411      0.0353352687
$end

$rem
   job_type = opt
   basis = 6-311++g*
   max_scf_cycles = 200
   gen_scfman = true
   scf_algorithm = gdm
   method = wb97xd
   geom_opt_max_cycles = 200
$end
