pymatgen 4.7.6+ generated KPOINTS with grid density = 1215 / atom
0
Gamma
5 5 5
