Si2
1.0
3.236854 -0.000000 1.868799
1.078951 3.051735 1.868799
0.000000 0.000000 3.737597
Si
2
direct
0.875000 0.875000 0.875000 Si
0.125000 0.125000 0.125000 Si

0.000000 0.000000 0.000000
0.000000 0.000000 0.000000
