$molecule
 1 2
 O     -0.0721166580     -0.9423525748      0.1290381249
 O     -0.9128154503      1.1031948110     -0.0245849890
 C      1.0295612699     -0.0735258648      0.4243443853
 C      0.4993856354      1.2773172061     -0.0556606885
 C      2.2823792011     -0.5560559455     -0.2650319965
 H      1.1583505963     -0.0744629653      1.5119909852
 H      0.7641180204      2.1082353010      0.5964291395
 H      0.8069141157      1.4995833674     -1.0824305971
 H      2.5706751853     -1.5425683479      0.1009167734
 H      3.1064325277      0.1354977761     -0.0683305535
 H      2.1286568635     -0.6170759485     -1.3449930086
$end

$rem
   job_type = opt
   basis = 6-311++g*
   max_scf_cycles = 200
   gen_scfman = true
   scf_algorithm = diis
   method = wb97xd
   geom_opt_max_cycles = 200
$end
