ALGO = Normal
EDIFF = 1e-06
ENCUT = 600
IBRION = 8
ICHARG = 0
ISIF = 3
ISMEAR = -5
ISPIN = 2
KPOINT_BSE = -1
LAECHG = True
LCHARG = True
LEPSILON = True
LORBIT = 11
LREAL = Auto
LVHAR = True
LWAVE = False
MAGMOM = 2*-0.0
NELM = 100
PREC = Accurate
SIGMA = 0.05
