pymatgen 4.7.6+ generated KPOINTS with grid density = 1201 / atom
0
Gamma
5 5 5
