Si2
1.0
3.534496 -0.000000 2.040642
1.178165 3.332355 2.040642
0.000000 0.000000 4.081284
Si
2
direct
0.875000 0.875000 0.875000 Si
0.125000 0.125000 0.125000 Si

0.000000 0.000000 0.000000
0.000000 0.000000 0.000000
