pymatgen generated KPOINTS with grid density = 620 / atom
0
Gamma
8 8 8
