$molecule
 0 1
 O     -1.5306266110      1.9993631841      0.4187485708
 C     -0.8774678940      0.9938802645      0.0027880683
 O     -1.0400410837     -0.1602199285      0.6048647246
 O     -0.0513824115      0.9711657671     -0.9636366330
 C      0.3220102079     -1.0152038276     -0.7061389062
 O      2.3997151594     -1.9247454509     -0.1423639661
 C      3.6799942514     -1.8754058375      0.2818631600
 C      1.7503899691     -0.6727084191     -0.3978752848
 O      4.2442175681     -0.7611864753      0.4527697096
 O      4.2477698242     -2.9790248282      0.4879851250
 Li     -2.2677036450      0.8281756840      1.6950800470
 Li      5.7340575264     -1.8672048566      0.9663717182
 H      0.0109151789     -1.0539512902     -1.7499862774
 H     -0.0471237014     -1.8559793269     -0.1184887140
 H      2.2341254465     -0.1534975305     -1.2355955992
 H      1.7995902147     -0.0320171284      0.4943242572
$end

$rem
   job_type = freq
   basis = def2-svpd
   max_scf_cycles = 200
   gen_scfman = true
   xc_grid = 3
   scf_algorithm = diis
   resp_charges = true
   symmetry = false
   sym_ignore = true
   method = wb97xv
   solvent_method = smd
   ideriv = 1
   thresh = 14
$end

$smx
   solvent other
$end
