$molecule
 0 1
 O     -1.9648500000      2.2155800000     -0.0130000000
 C     -1.4762200000      1.0485300000      0.0054600000
 O     -2.1906300000      0.0131300000      0.0726000000
 O     -0.1586500000      0.9791100000     -0.0387100000
 C      0.6177000000     -0.8959800000      0.0042900000
 O      2.6525500000     -1.9583600000     -0.0077100000
 C      4.0160000000     -2.0527100000     -0.0038300000
 C      2.1002000000     -0.6530200000     -0.0032700000
 O      4.7086800000     -1.0133300000      0.0172700000
 O      4.4643700000     -3.2238700000     -0.0073700000
 Li     -3.6719700000      1.2886100000      0.0618400000
 Li      6.1889000000     -2.2976000000     -0.0164600000
 H      0.2365400000     -1.4058800000     -0.8881300000
 H      0.2630800000     -1.4179300000      0.9028900000
 H      2.4095900000     -0.0832700000     -0.8871700000
 H      2.4131500000     -0.1015700000      0.8920100000
$end

$rem
   job_type = ts
   basis = def2-svpd
   max_scf_cycles = 200
   gen_scfman = true
   xc_grid = 3
   scf_algorithm = diis
   resp_charges = true
   symmetry = false
   sym_ignore = true
   method = wb97xv
   solvent_method = smd
   ideriv = 1
   thresh = 14
   scf_guess_always = True
   geom_opt_max_cycles = 250
   geom_opt_hessian = read
$end

$smx
   solvent other
$end
