pymatgen generated KPOINTS with grid density = 7000 / atom
0
Gamma
15 15 15
