pymatgen generated KPOINTS with grid density = 100 / atom
0
Gamma
1 1 1
