Si8                                     
   1.00000000000000     
     5.4687270000000003    0.0000000000000000    0.0000000000000000
     0.0000000000000000    5.4687270000000003    0.3281240000000000
     0.0000000000000000    0.0000000000000000    5.4588749999999999
   Si
     8
Direct
  0.0037854438576660  0.0000000000000000  0.0000000000000000
  0.2462145561423340  0.2500000000000000  0.2500000000000000
  0.0037854438576660  0.5000000000000000  0.5000000000000000
  0.2462145561423340  0.7500000000000000  0.7500000000000000
  0.5037854438576661  0.0000000000000000  0.5000000000000000
  0.7462145561423339  0.2500000000000000  0.7500000000000000
  0.5037854438576661  0.5000000000000000 -0.0000000000000000
  0.7462145561423339  0.7500000000000000  0.2500000000000000
 
  0.00000000E+00  0.00000000E+00  0.00000000E+00
  0.00000000E+00  0.00000000E+00  0.00000000E+00
  0.00000000E+00  0.00000000E+00  0.00000000E+00
  0.00000000E+00  0.00000000E+00  0.00000000E+00
  0.00000000E+00  0.00000000E+00  0.00000000E+00
  0.00000000E+00  0.00000000E+00  0.00000000E+00
  0.00000000E+00  0.00000000E+00  0.00000000E+00
  0.00000000E+00  0.00000000E+00  0.00000000E+00
