Ir4                                     
   1.00000000000000     
     0.0000000000000000   -1.9459480000000000   -1.9459480000000000
     0.0000000000000000   -1.9459480000000000    1.9459480000000000
   -31.1351720000000007    0.0000000000000000    0.0000000000000000
   Ir
     4
Direct
  0.0000000000000000 -0.0000000000000000  0.5318903723870927
  0.5000000000000000  0.5000000000000000  0.5911995092089458
  0.0000000000000000  0.0000000000000000  0.4088004907910541
  0.5000000000000000  0.5000000000000000  0.4681096276129074
 
  0.00000000E+00  0.00000000E+00  0.00000000E+00
  0.00000000E+00  0.00000000E+00  0.00000000E+00
  0.00000000E+00  0.00000000E+00  0.00000000E+00
  0.00000000E+00  0.00000000E+00  0.00000000E+00
