Si2                                     
   1.00000000000000     
     3.6089069999999999    0.0000000000000000    2.0836030000000001
     1.2029690000000000    3.4025099999999999    2.0836030000000001
     0.0000000000000000    0.0000000000000000    4.1672050000000000
   Si
     2
Direct
  0.8750000000000000  0.8750000000000000  0.8750000000000000
  0.1250000000000000  0.1250000000000000  0.1250000000000000
 
  0.00000000E+00  0.00000000E+00  0.00000000E+00
  0.00000000E+00  0.00000000E+00  0.00000000E+00
