ALGO = Normal
EDIFF = 1e-07
ENCUT = 520
IBRION = -1
ICHARG = 0
ISIF = 3
ISMEAR = -5
ISPIN = 2
ISYM = 0
LORBIT = 11
LREAL = Auto
LWAVE = True
MAGMOM = 3*0.0
NBANDS = 17
NELM = 100
NPAR = 4
NSW = 0
PREC = Accurate
SIGMA = 0.05
