Si2
1.0
3.385675 -0.000000 1.954721
1.128558 3.192045 1.954721
0.000000 0.000000 3.909440
Si
2
direct
0.875000 0.875000 0.875000 Si
0.125000 0.125000 0.125000 Si

0.000000 0.000000 0.000000
0.000000 0.000000 0.000000
