Si8                                     
   1.00000000000000     
     5.4685949999999997    0.0000000000000000    0.1640580000000000
     0.0000000000000000    5.4685949999999997    0.0000000000000000
     0.0000000000000000    0.0000000000000000    5.4685949999999997
   Si
     8
Direct
  0.0000000000000000  0.0019309144701323  0.5000000000000000
  0.7500000000000000  0.7480690855298677  0.7500000000000000
 -0.0000000000000000  0.5019309144701323  0.0000000000000000
  0.7500000000000000  0.2480690855298677  0.2500000000000000
  0.5000000000000000  0.0019309144701323 -0.0000000000000000
  0.2500000000000000  0.7480690855298677  0.2500000000000000
  0.5000000000000000  0.5019309144701323  0.5000000000000000
  0.2500000000000000  0.2480690855298677  0.7500000000000000
 
  0.00000000E+00  0.00000000E+00  0.00000000E+00
  0.00000000E+00  0.00000000E+00  0.00000000E+00
  0.00000000E+00  0.00000000E+00  0.00000000E+00
  0.00000000E+00  0.00000000E+00  0.00000000E+00
  0.00000000E+00  0.00000000E+00  0.00000000E+00
  0.00000000E+00  0.00000000E+00  0.00000000E+00
  0.00000000E+00  0.00000000E+00  0.00000000E+00
  0.00000000E+00  0.00000000E+00  0.00000000E+00
