$molecule
 -1 2
 C      1.8754703937     -0.0555233095      0.0422375917
 O      1.6042475702     -1.2905898096     -0.6352653227
 C      2.9267520361     -0.8737188809     -0.2653132689
$end

$rem
   job_type = sp
   basis = def2-tzvppd
   max_scf_cycles = 200
   gen_scfman = true
   xc_grid = 3
   scf_algorithm = diis
   resp_charges = true
   symmetry = false
   sym_ignore = true
   method = wb97xv
   solvent_method = smd
   ideriv = 1
   plots = true
   make_cube_files = true
   thresh = 14
   scf_guess_always = true
$end

$smx
   solvent other
$end

$plots
   grid_spacing 0.05
   total_density 0
$end
