$molecule
 0  3
 S          -0.01806751        0.44661919       -0.04085929
 C           1.69268044        0.21661087       -0.04392406
 H           2.25504587        0.33055482        0.86711357
 C           2.19358481       -0.11156535       -1.30306695
 H           3.24493128       -0.28705096       -1.47749232
 C           1.23419097       -0.18832714       -2.27969081
 H           1.41780922       -0.42884607       -3.31540271
 C          -0.10080114        0.09259041       -1.77631473
 C          -1.26244536        0.10213358       -2.45607151
 C          -2.59743368        0.38305035       -1.95269678
 H          -2.78105339        0.62358164       -0.91698798
 C          -3.55683364        0.30626426       -2.92931891
 H          -4.60818235        0.48172931       -2.75488659
 C          -3.05593616       -0.02196154       -4.18844665
 H          -3.61830306       -0.13593920       -5.09947931
 S          -1.34517359       -0.25185813       -4.19153327
$end


$rem
              jobtype = opt
               method = wb97m-v
                basis = def2-tzvppd
  geom_opt_max_cycles = 75
       max_scf_cycles = 300
        scf_algorithm = diis
            scf_guess = sad
           sym_ignore = true
             symmetry = false
               thresh = 14
$end


$opt
CONSTRAINT
tors 6 8 9 10 180.0
ENDCONSTRAINT
$end

