Ba1 Ti1 O3                              
   1.00000000000000     
     4.0224849999999996    0.0000000000000000    0.0000000000000000
     0.0000000000000000    4.0224849999999996    0.0000000000000000
     0.0000000000000000    0.0000000000000000    4.0939439999999996
   Ba   Ti   O 
     1     1     3
Direct
  0.0000000000000000  0.0000000000000000  0.0086239999999975
  0.5000000000000000  0.5000000000000000  0.5148170000000007
  0.0000000000000000  0.5000000000000000  0.4992069999999984
  0.5000000000000000  0.0000000000000000  0.4992069999999984
  0.5000000000000000  0.5000000000000000  0.9921429999999987
 
  0.00000000E+00  0.00000000E+00  0.00000000E+00
  0.00000000E+00  0.00000000E+00  0.00000000E+00
  0.00000000E+00  0.00000000E+00  0.00000000E+00
  0.00000000E+00  0.00000000E+00  0.00000000E+00
  0.00000000E+00  0.00000000E+00  0.00000000E+00
