ALGO = Normal
EDIFF = 1e-06
ENCUT = 700
IBRION = 2
ICHARG = 0
ISIF = 2
ISMEAR = -5
ISPIN = 2
ISTART = 1
LAECHG = True
LCHARG = True
LORBIT = 11
LREAL = Auto
LVHAR = True
LWAVE = False
MAGMOM = 8*0.6
NCORE = 16
NELM = 100
NSW = 99
PREC = Accurate
SIGMA = 0.05
