H1 Ir16
1.0
0.000000 -3.891896 -3.891896
0.000000 -3.891896 3.891896
-31.135172 0.000000 0.000000
H Ir
1 16
Selective dynamics
direct
0.250000 0.000000 0.341746 T T T H
0.000000 0.000000 0.531250 F F F Ir
0.000000 0.500000 0.531250 F F F Ir
0.500000 0.000000 0.531250 F F F Ir
0.500000 0.500000 0.531250 F F F Ir
0.250000 0.250000 0.593750 F F F Ir
0.250000 0.750000 0.593750 F F F Ir
0.750000 0.250000 0.593750 F F F Ir
0.750000 0.750000 0.593750 F F F Ir
0.000000 0.000000 0.406250 T T T Ir
0.000000 0.500000 0.406250 T T T Ir
0.500000 0.000000 0.406250 T T T Ir
0.500000 0.500000 0.406250 T T T Ir
0.250000 0.250000 0.468750 F F F Ir
0.250000 0.750000 0.468750 F F F Ir
0.750000 0.250000 0.468750 F F F Ir
0.750000 0.750000 0.468750 F F F Ir

0.000000 0.000000 0.000000
0.000000 0.000000 0.000000
0.000000 0.000000 0.000000
0.000000 0.000000 0.000000
0.000000 0.000000 0.000000
0.000000 0.000000 0.000000
0.000000 0.000000 0.000000
0.000000 0.000000 0.000000
0.000000 0.000000 0.000000
0.000000 0.000000 0.000000
0.000000 0.000000 0.000000
0.000000 0.000000 0.000000
0.000000 0.000000 0.000000
0.000000 0.000000 0.000000
0.000000 0.000000 0.000000
0.000000 0.000000 0.000000
0.000000 0.000000 0.000000
