Si2                                     
   1.00000000000000     
     3.1624439999999998    0.0000000000000000    1.8258380000000001
     1.0541480000000001    2.9815809999999998    1.8258380000000001
     0.0000000000000000    0.0000000000000000    3.6516750000000000
   Si
     2
Direct
  0.8750000000000000  0.8750000000000000  0.8750000000000000
  0.1250000000000000  0.1250000000000000  0.1250000000000000
 
  0.00000000E+00  0.00000000E+00  0.00000000E+00
  0.00000000E+00  0.00000000E+00  0.00000000E+00
