Li15 O8
1.0
-4.610000 -4.610000 0.000000
-4.610000 0.000000 -4.610000
0.000000 -4.610000 -4.610000
Li O
15 8
direct
0.125000 0.125000 0.625000 Li+
0.125000 0.625000 0.125000 Li+
0.125000 0.625000 0.625000 Li+
0.625000 0.125000 0.125000 Li+
0.625000 0.125000 0.625000 Li+
0.625000 0.625000 0.125000 Li+
0.625000 0.625000 0.625000 Li+
0.375000 0.375000 0.375000 Li+
0.375000 0.375000 0.875000 Li+
0.375000 0.875000 0.375000 Li+
0.375000 0.875000 0.875000 Li+
0.875000 0.375000 0.375000 Li+
0.875000 0.375000 0.875000 Li+
0.875000 0.875000 0.375000 Li+
0.875000 0.875000 0.875000 Li+
0.000000 0.000000 0.000000 O2-
0.000000 1.000000 0.500000 O2-
1.000000 0.500000 1.000000 O2-
0.000000 0.500000 0.500000 O2-
0.500000 0.000000 1.000000 O2-
0.500000 0.000000 0.500000 O2-
0.500000 0.500000 1.000000 O2-
0.500000 0.500000 0.500000 O2-
