$molecule
 0 1
 O     -0.0074020873     -0.9725377021     -0.0818413860
 O     -2.1480608226     -0.1084306860      0.1158114145
 C      0.9721579268      0.1031170682     -0.0849730813
 C      0.0639819460      1.1044382255     -0.0652741366
 C      2.3416050805      0.1067744221      0.1693642554
 C     -0.9818466411      0.0148754594      0.0128826591
 H      0.0964214130      2.1820834157     -0.0381875096
 H      2.6078378821     -0.7702662599      0.7796903301
$end

$rem
   job_type = freq
   basis = 6-311++g*
   max_scf_cycles = 200
   gen_scfman = true
   scf_algorithm = gdm
   method = wb97xd
   geom_opt_max_cycles = 200
$end
