$molecule
 0 1
 O     -0.1644530098     -0.9093054780     -0.3472804284
 O     -2.0424751521      0.3719021547      0.2464160326
 C      0.9839487954     -0.1152777247     -0.2152013131
 C      0.3700401701      1.0661683773      0.0725738107
 C      2.3041816390     -0.5660361251     -0.2517184464
 C     -0.8881638574      0.2932052640      0.0552665034
 H      0.6612309078      2.0620063066      0.3585948443
 H      2.4668889708     -1.3417060073      0.5110848538
$end

$rem
   job_type = opt
   basis = 6-311++g*
   max_scf_cycles = 200
   gen_scfman = true
   scf_algorithm = gdm
   method = wb97xd
   geom_opt_max_cycles = 200
$end
