$molecule
 0  3
 S          -0.01806751        0.44661919       -0.04085929
 C           1.69268044        0.21661087       -0.04392406
 H           2.25504587        0.33055482        0.86711357
 C           2.19358481       -0.11156535       -1.30306695
 H           3.24493128       -0.28705096       -1.47749232
 C           1.23419097       -0.18832714       -2.27969081
 H           1.41780922       -0.42884607       -3.31540271
 C          -0.10080114        0.09259041       -1.77631473
 C          -1.26244536        0.10213358       -2.45607151
 C          -2.18460804       -1.00015317       -2.67759822
 H          -2.00022910       -1.98934772       -2.28803081
 C          -3.27876920       -0.63243287       -3.41768489
 H          -4.07679844       -1.30813417       -3.68810275
 C          -3.27778721        0.70867904       -3.79906530
 H          -4.02906928        1.21764213       -4.37851312
 S          -1.88727548        1.56487579       -3.23962378
$end


$rem
              jobtype = opt
               method = wb97m-v
                basis = def2-tzvppd
  geom_opt_max_cycles = 75
       max_scf_cycles = 300
        scf_algorithm = diis
            scf_guess = sad
           sym_ignore = true
             symmetry = false
               thresh = 14
$end


$opt
CONSTRAINT
tors 6 8 9 10 90.0
ENDCONSTRAINT
$end

