$molecule
 0 2
 O     -1.9351170103     -4.3096774174      1.3400474306
 C     -1.5661825504     -4.9710915330      0.2083949447
 C     -2.8339166195     -3.3092228285      1.0003650609
 O     -0.7320331758     -5.8221507995      0.1741347022
 O     -2.2742140125     -4.5382521363     -0.8386508077
 C     -3.2666933425     -3.5882799742     -0.3991280389
 H     -1.5596006406     -1.7078404594      0.8387319203
 H     -3.5207902237     -3.0348144473      1.7970117190
 H     -3.2569638000     -2.7293641132     -1.0755409980
 H     -4.2534590539     -4.0678056370     -0.4296719689
 C     -0.9611052060     -1.3717295518      0.6510771153
 O      0.0360758643     -1.8501715526      0.1398350598
 H     -1.0078202290     -0.2955395498      0.8884738605
$end

$rem
   job_type = opt
   basis = def2-tzvppd
   max_scf_cycles = 100
   gen_scfman = true
   xc_grid = 3
   scf_algorithm = diis
   resp_charges = true
   symmetry = false
   sym_ignore = true
   method = wb97xv
   geom_opt_max_cycles = 200
   solvent_method = smd
   ideriv = 1
   thresh = 14
   s2thresh = 16
$end

$smx
   solvent other
$end
