$molecule
 0 2
 O     -2.0503898163     -4.4070487241      1.3807016603
 C     -1.5010721596     -4.8820463397      0.2291037975
 C     -3.1143731743     -3.5920073101      1.0643986986
 O     -0.5256776590     -5.5697624191      0.1953164526
 O     -2.2241074447     -4.5089287328     -0.8277141075
 C     -3.3246244737     -3.6763087178     -0.4077146393
 H     -1.6651171651     -1.1818084655      1.2457074079
 H     -3.8672603536     -3.4748017475      1.8313959802
 H     -3.2508527480     -2.7149395528     -0.9245697203
 H     -4.2631656839     -4.1644647767     -0.6913045082
 C     -0.7568521341     -1.1419750734      0.6174365890
 O     -0.3683393134     -2.1042232596      0.0017220660
 H     -0.2199878742     -0.1776248810      0.5806003231
$end

$rem
   job_type = freq
   basis = def2-tzvppd
   max_scf_cycles = 100
   gen_scfman = true
   xc_grid = 3
   scf_algorithm = diis
   resp_charges = true
   symmetry = false
   sym_ignore = true
   method = wb97xv
   geom_opt_max_cycles = 200
   solvent_method = smd
   ideriv = 1
   thresh = 14
   s2thresh = 16
$end

$smx
   solvent other
$end
