Li12                                    
   1.00000000000000     
     4.8659670000000004    0.0000000000000000    0.0000000000000000
     2.4329830000000001    4.2140510000000004    0.0000000000000000
     0.0000000000000000    0.0000000000000000   23.8382709999999989
   Li
    12
Direct
  0.6666669999999968  0.6666669999999968  0.3192569624028718
  0.0000000000000000  0.0000000000000000  0.4773747869111921
  0.3333330000000032  0.3333330000000032  0.3938263236727984
  0.6666669999999968  0.6666669999999968  0.4393534851125054
 -0.0000000000000000 -0.0000000000000000  0.3486088829023004
  0.3333330000000032  0.3333330000000032  0.2694776857700794
  0.6666669999999968  0.6666669999999968  0.5606465148874947
  0.0000000000000000 -0.0000000000000000  0.7305223142299206
  0.3333330000000032  0.3333330000000032  0.6513911170976996
  0.6666669999999968  0.6666669999999968  0.6807430375971283
 -0.0000000000000000  0.0000000000000000  0.6061736763272014
  0.3333330000000032  0.3333330000000032  0.5226252130888078
 
  0.00000000E+00  0.00000000E+00  0.00000000E+00
  0.00000000E+00  0.00000000E+00  0.00000000E+00
  0.00000000E+00  0.00000000E+00  0.00000000E+00
  0.00000000E+00  0.00000000E+00  0.00000000E+00
  0.00000000E+00  0.00000000E+00  0.00000000E+00
  0.00000000E+00  0.00000000E+00  0.00000000E+00
  0.00000000E+00  0.00000000E+00  0.00000000E+00
  0.00000000E+00  0.00000000E+00  0.00000000E+00
  0.00000000E+00  0.00000000E+00  0.00000000E+00
  0.00000000E+00  0.00000000E+00  0.00000000E+00
  0.00000000E+00  0.00000000E+00  0.00000000E+00
  0.00000000E+00  0.00000000E+00  0.00000000E+00
