pymatgen v2020.11.11 with grid density = 1220 / number of atoms
0
Gamma
4 4 4
