Y2 Mg2 P2 O8
   1.00000000000000
    -4.2855410531210802    4.4929901466402331    3.1192306448004672
     4.4929901466402331   -4.2855410531210802    3.1192306448004672
     3.9898950147146075    3.9898950147146097   -2.8297124587775224
   Y    Mg   P    O
     2     2     2     8
Direct
  0.4452066208829136  0.5547933791170860 -0.0000000000000000
  0.8089177498160257  0.1910822501839742  0.5000000000000000
  0.5560410757320505  0.4439589242679503  0.5000000000000000
  0.6988266137430736  0.3011733862569266 -0.0000000000000000
  0.3101110320203036  0.6898889679796966  0.5000000000000000
 -0.0576162671492274  0.0576162671492274  0.0000000000000000
  0.7996092050252704  0.7883149056111474  0.8264523167159072
  0.2699054959810951  0.4962124667574608  0.6253018069823498
  0.0385115187670897  0.5449569262323344  0.3298877817500609
  0.7455058884454657  0.0147026346631188  0.1221874775918829
 -0.0147026346631188  0.2544941115545342  0.8778125224081170
  0.4550430737676648 -0.0385115187670897  0.6701122182499386
  0.5037875332425396  0.7300945040189046  0.3746981930176501
  0.2116850943888527  0.2003907949747295  0.1735476832840926

  0.00000000E+00  0.00000000E+00  0.00000000E+00
  0.00000000E+00  0.00000000E+00  0.00000000E+00
  0.00000000E+00  0.00000000E+00  0.00000000E+00
  0.00000000E+00  0.00000000E+00  0.00000000E+00
  0.00000000E+00  0.00000000E+00  0.00000000E+00
  0.00000000E+00  0.00000000E+00  0.00000000E+00
  0.00000000E+00  0.00000000E+00  0.00000000E+00
  0.00000000E+00  0.00000000E+00  0.00000000E+00
  0.00000000E+00  0.00000000E+00  0.00000000E+00
  0.00000000E+00  0.00000000E+00  0.00000000E+00
  0.00000000E+00  0.00000000E+00  0.00000000E+00
  0.00000000E+00  0.00000000E+00  0.00000000E+00
  0.00000000E+00  0.00000000E+00  0.00000000E+00
  0.00000000E+00  0.00000000E+00  0.00000000E+00
