Si2
1.0
3.162444 -0.000000 1.825838
1.054148 2.981581 1.825838
0.000000 0.000000 3.651675
Si
2
direct
0.875000 0.875000 0.875000 Si
0.125000 0.125000 0.125000 Si

0.000000 0.000000 0.000000
0.000000 0.000000 0.000000
