Si2                                     
    1.000000000000000     
     0.0000000000000000    2.7347720000000000    2.7347720000000000
     2.7347720000000000    0.0000000000000000    2.7347720000000000
     2.7347720000000000    2.7347720000000000    0.0000000000000000
   Si
   2
Direct
  0.0000000000000000  0.0000000000000000  0.0000000000000000
  0.2500000000000000  0.2500000000000000  0.2500000000000000
 
  0.00000000E+00  0.00000000E+00  0.00000000E+00
  0.00000000E+00  0.00000000E+00  0.00000000E+00
