Ba1 Ti1 O3                              
   1.00000000000000     
     4.0154459999999998    0.0000000000000000    0.0000000000000000
     0.0000000000000000    4.0154459999999998    0.0000000000000000
     0.0000000000000000    0.0000000000000000    4.1345440000000000
   Ba   Ti   O 
     1     1     3
Direct
  0.0000000000000000  0.0000000000000000  0.0125069999999994
  0.5000000000000000  0.5000000000000000  0.5228290000000015
  0.0000000000000000  0.5000000000000000  0.4968119999999985
  0.5000000000000000  0.0000000000000000  0.4968119999999985
  0.5000000000000000  0.5000000000000000  0.9850380000000030
 
  0.00000000E+00  0.00000000E+00  0.00000000E+00
  0.00000000E+00  0.00000000E+00  0.00000000E+00
  0.00000000E+00  0.00000000E+00  0.00000000E+00
  0.00000000E+00  0.00000000E+00  0.00000000E+00
  0.00000000E+00  0.00000000E+00  0.00000000E+00
