Ba1 Ti1 O3                              
   1.00000000000000     
     4.0048880000000002    0.0000000000000000    0.0000000000000000
     0.0000000000000000    4.0048880000000002    0.0000000000000000
     0.0000000000000000    0.0000000000000000    4.1954440000000002
   Ba   Ti   O 
     1     1     3
Direct
  0.0000000000000000  0.0000000000000000  0.0183320000000009
  0.5000000000000000  0.5000000000000000  0.5348460000000017
  0.0000000000000000  0.5000000000000000  0.4932200000000009
  0.5000000000000000  0.0000000000000000  0.4932200000000009
  0.5000000000000000  0.5000000000000000  0.9743810000000011
 
  0.00000000E+00  0.00000000E+00  0.00000000E+00
  0.00000000E+00  0.00000000E+00  0.00000000E+00
  0.00000000E+00  0.00000000E+00  0.00000000E+00
  0.00000000E+00  0.00000000E+00  0.00000000E+00
  0.00000000E+00  0.00000000E+00  0.00000000E+00
