Si128
1.0
15.360792 0.000000 0.000000
7.680396 13.302841 0.000000
0.000000 -8.868554 12.542036
Si
128
direct
0.002404 -0.002517 0.000123 Si
0.000357 -0.000777 0.252550 Si
0.004490 -0.001628 0.500263 Si
0.002106 -0.006496 0.747226 Si
0.002968 0.251340 -0.000424 Si
-0.003427 0.250985 0.250110 Si
-0.000782 0.251244 0.499624 Si
0.000512 0.249102 0.751360 Si
0.006130 0.492281 -0.004097 Si
-0.002867 0.504654 0.250646 Si
-0.002557 0.504956 0.501778 Si
-0.002017 0.505049 0.753557 Si
-0.000990 0.749992 0.002984 Si
-0.002484 0.747893 0.249024 Si
0.001491 0.747627 0.499072 Si
-0.002745 0.752763 0.751308 Si
0.250543 0.002043 0.002689 Si
0.250263 0.001233 0.251568 Si
0.249181 0.003382 0.499683 Si
0.252592 0.000338 0.750248 Si
0.248235 0.253531 0.002630 Si
0.251371 0.246532 0.246163 Si
0.247689 0.250186 0.499295 Si
0.248728 0.252353 0.751770 Si
0.247456 0.501566 0.000831 Si
0.245919 0.510981 0.258069 Si
0.250265 0.499354 0.499871 Si
0.248424 0.501149 0.748379 Si
0.247168 0.753267 -0.000149 Si
0.249007 0.747189 0.248607 Si
0.250103 0.751187 0.502381 Si
0.250548 0.753120 0.750159 Si
0.504837 -0.004255 -0.001475 Si
0.502158 0.000984 0.253542 Si
0.493063 0.004233 0.502475 Si
0.496057 0.004024 0.754290 Si
0.500139 0.251115 -0.000257 Si
0.496737 0.251876 0.254678 Si
0.496044 0.254600 0.500845 Si
0.497132 0.256958 0.752534 Si
0.496869 0.505817 0.003930 Si
0.500507 0.500335 0.248215 Si
0.497799 0.501539 0.498221 Si
0.498527 0.502456 0.752570 Si
0.499691 0.748601 -0.000097 Si
0.498840 0.750386 0.249273 Si
0.499950 0.751666 0.499152 Si
0.496771 0.749795 0.751294 Si
0.749428 0.001949 -0.000458 Si
0.751229 -0.002795 0.249361 Si
0.750397 -0.002559 0.500299 Si
0.748756 -0.000843 0.749283 Si
0.749923 0.249533 0.000966 Si
0.753039 0.243413 0.251122 Si
0.747658 0.252684 0.503283 Si
0.753566 0.247640 0.749662 Si
0.747313 0.502195 0.004115 Si
0.750050 0.499140 0.251465 Si
0.742704 0.506149 0.502660 Si
0.748272 0.506458 0.752443 Si
0.744373 0.752620 -0.001382 Si
0.749078 0.750121 0.249336 Si
0.750750 0.747982 0.499201 Si
0.747734 0.749730 0.746002 Si
0.187469 0.122464 0.189217 Si
0.184052 0.126282 0.437630 Si
0.180841 0.131891 0.692717 Si
0.187955 0.126552 0.941521 Si
0.190406 0.372753 0.187942 Si
0.185969 0.375798 0.438707 Si
0.190932 0.369119 0.683643 Si
0.184574 0.379973 0.942675 Si
0.186188 0.629074 0.191760 Si
0.186757 0.629134 0.443758 Si
0.189067 0.624236 0.687615 Si
0.185067 0.627484 0.938558 Si
0.188650 0.875055 0.188436 Si
0.189488 0.872896 0.434502 Si
0.188558 0.874926 0.687882 Si
0.189431 0.877489 0.938528 Si
0.434486 0.127784 0.186098 Si
0.437186 0.126922 0.436987 Si
0.430043 0.128728 0.693003 Si
0.435968 0.126353 0.933531 Si
0.439790 0.371458 0.184592 Si
0.435504 0.378703 0.441008 Si
0.440051 0.376642 0.688726 Si
0.438845 0.375748 0.937328 Si
0.441756 0.618757 0.184083 Si
0.440481 0.623350 0.435743 Si
0.434662 0.624163 0.686391 Si
0.438961 0.626271 0.940724 Si
0.436167 0.873872 0.183818 Si
0.442474 0.870235 0.433385 Si
0.433970 0.877630 0.687396 Si
0.437553 0.876921 0.938552 Si
0.685077 0.128538 0.190597 Si
0.688620 0.123968 0.436125 Si
0.686134 0.129310 0.685286 Si
0.686645 0.132644 0.943020 Si
0.687873 0.373540 0.186993 Si
0.689695 0.374393 0.438742 Si
0.686614 0.376172 0.689488 Si
0.687637 0.374833 0.938885 Si
0.690119 0.620944 0.187764 Si
0.685863 0.624962 0.438326 Si
0.687946 0.625392 0.686429 Si
0.688831 0.626261 0.939012 Si
0.688685 0.873769 0.186379 Si
0.690407 0.872704 0.436420 Si
0.690068 0.868895 0.681756 Si
0.689423 0.869237 0.939286 Si
0.934735 0.127559 0.186834 Si
0.939562 0.125044 0.437563 Si
0.935312 0.129003 0.689791 Si
0.940475 0.127166 0.937939 Si
0.942430 0.373299 0.186505 Si
0.937508 0.372289 0.436061 Si
0.936880 0.371913 0.686790 Si
0.935704 0.377405 0.934935 Si
0.935908 0.624800 0.189670 Si
0.940868 0.623802 0.437307 Si
0.939283 0.623943 0.684337 Si
0.936195 0.626949 0.942072 Si
0.936474 0.875867 0.187693 Si
0.939995 0.871104 0.436789 Si
0.938360 0.874652 0.687098 Si
0.938896 0.873531 0.937362 Si
