$molecule
 0 1
 C      0.0000000000      0.0000000000      0.0000000000
 O      1.3000000000      0.0000000000      0.0000000000
$end

$rem
   job_type = opt
   basis = def2-tzvppd
   max_scf_cycles = 100
   method = wB97xv
   geom_opt_max_cycles = 200
   gen_scfman = True
   scf_algorithm = diis
   xc_grid = 3
   thresh = 14
   s2thresh = 16
   symmetry = False
   sym_ignore = True
   resp_charges = True
$end
