$molecule
 0  1
 S           0.00000000        0.00000000        0.00000000
 C           1.73260000        0.00000000        0.00000000
 H           2.26917000        0.00000000        0.93637000
 C           2.23530000       -0.00034000       -1.26993000
 H           3.29468000       -0.00058000       -1.48995000
 C           1.22051000        0.01449000       -2.26672000
 H           1.42295000        0.04240000       -3.32958000
 C          -0.05491000        0.02440000       -1.75205000
 C          -1.32482000        0.04532000       -2.45424000
 C          -2.53418000        0.55615000       -2.04413000
 H          -2.66788000        1.04940000       -1.09006000
 C          -3.57110000        0.40311000       -3.00589000
 H          -4.58439000        0.75286000       -2.85882000
 C          -3.15071000       -0.22126000       -4.14556000
 H          -3.71828000       -0.45629000       -5.03287000
 S          -1.47492000       -0.65202000       -4.05564000
$end


$rem
         jobtype = opt
          method = wB97M-V
           basis = def2-TZVPPD
  max_scf_cycles = 300
      gen_scfman = true
   scf_algorithm = gdm_ls
       scf_guess = sad
      sym_ignore = true
        symmetry = false
          thresh = 14
$end


