$molecule
 0 1
 C      0.0000000000      0.0000000000      0.0000000000
 O      1.3000000000      0.0000000000      0.0000000000
$end

$rem
   job_type = opt
   basis = def2-svpd
   max_scf_cycles = 100
   gen_scfman = true
   xc_grid = 3
   thresh = 14
   s2thresh = 16
   scf_algorithm = diis
   resp_charges = true
   symmetry = false
   sym_ignore = true
   method = wb97mv
   geom_opt_max_cycles = 200
$end

$geom_opt
   maxiter = 200
   coordinates = redundant
   max_displacement = 0.1
   optimization_restart = false
$end
