Li1 Mn8 O16
1.0
5.770635 0.000000 0.000000
0.000000 5.770635 0.000000
0.000000 0.000000 8.209947
Li Mn O
1 8 16
Selective dynamics
direct
0.499998 0.499994 0.000145 F F F Li
0.750000 0.500000 0.375000 T T T Mn
0.000000 0.250000 0.125000 T T T Mn
0.250000 0.500000 0.375000 T T T Mn
0.000000 0.750000 0.125000 T T T Mn
0.250000 0.000000 0.875000 T T T Mn
0.500000 0.750000 0.625000 T T T Mn
0.750000 0.000000 0.875000 T T T Mn
0.500000 0.250000 0.625000 T T T Mn
0.500000 0.279180 0.390752 T T T O
0.279180 0.500000 0.609248 T T T O
0.720820 0.500000 0.609248 T T T O
0.000000 0.720820 0.359248 T T T O
0.000000 0.279180 0.359248 T T T O
0.220820 0.500000 0.140752 T T T O
0.500000 0.720820 0.390752 T T T O
0.779180 0.500000 0.140752 T T T O
0.000000 0.779180 0.890752 T T T O
0.779180 0.000000 0.109248 T T T O
0.220820 0.000000 0.109248 T T T O
0.500000 0.220820 0.859248 T T T O
0.500000 0.779180 0.859248 T T T O
0.720820 0.000000 0.640752 F F F O
0.000000 0.220820 0.890752 T T T O
0.279180 0.000000 0.640752 T T T O
