ALGO = Fast
EDIFF = 5e-05
EDIFFG = -0.05
ENCUT = 520
IBRION = 2
ICHARG = 1
ISIF = 2
ISMEAR = -5
ISPIN = 2
ISYM = 0
LORBIT = 11
LREAL = Auto
LWAVE = False
MAGMOM = 23*0.6
NELM = 100
NELMIN = 4
NSW = 99
PREC = Accurate
SIGMA = 0.05
