pymatgen generated KPOINTS with grid density = 1000 / atom
0
Monkhorst
4 4 4
