Si2                                     
   1.00000000000000     
     3.3481450365367476   -0.0000000010180379    1.9330524648780703
     1.1160480089481526    3.1566613128466834    1.9330524648780698
     0.0000000039333955    0.0000000027813308    3.8661039161304580
   Si
     2
Direct
  0.8750000000000000  0.8750000000000000  0.8750000000000000
  0.1250000000000000  0.1250000000000000  0.1250000000000000
 
  0.00000000E+00  0.00000000E+00  0.00000000E+00
  0.00000000E+00  0.00000000E+00  0.00000000E+00
