Poscar v1.1 :: 1 :: Si
1.0
3.3254885120 0.0000000000 1.9199716876 
1.1084961707 3.1353006368 1.9199716876 
0.0000000000 0.0000000000 3.8399433752 
 2
Direct
0.8750000000 0.8750000000 0.8750000000
0.1250000000 0.1250000000 0.1250000000
