ALGO = Fast
EDIFF = 1e-06
ENCUT = 700
IBRION = 2
ICHARG = 1
ISIF = 3
ISMEAR = -5
ISPIN = 2
ISTART = 1
LORBIT = 11
LREAL = Auto
LWAVE = False
MAGMOM = 8*0.6
NCORE = 4
NELM = 100
NSW = 99
PREC = Accurate
SIGMA = 0.05
