pymatgen 4.7.6+ generated KPOINTS with grid density = 793 / atom
0
Gamma
4 4 4
