Si2                                     
   1.0000000000000000     
     3.8927900000000002    0.0000000000000000   -0.0000000000000000
     1.9463950000000001    3.3712559999999998    0.0000000000000000
    -0.0000000000000000   -2.2475019999999999    3.1784500000000002
   Si
     2
Direct
  0.0000000000000000  0.0000000000000000  0.0000000000000000
  0.7500000000000000  0.5000000000000000  0.7500000000000000

  0.00000000E+00  0.00000000E+00  0.00000000E+00
  0.00000000E+00  0.00000000E+00  0.00000000E+00
