Si2
1.0
3.892790 0.000000 -0.000000
1.946395 3.371256 0.000000
-0.000000 -2.247502 3.178450
Si
2
direct
0.000000 0.000000 0.000000 Si
0.750000 0.500000 0.750000 Si
