$molecule
 0 1
 O      0.3178678256     -0.1451772019      0.1876900614
 H     -0.1270774417      0.0644667196      1.0214927440
 H      2.3658372785      0.0719311463      0.7249943525
 O      1.8971011149     -0.5514399588      1.2982221472
$end

$rem
job_type = freq
basis = def2-svpd
max_scf_cycles = 100
gen_scfman = true
xc_grid = 3
thresh = 14
s2thresh = 16
scf_algorithm = diis
resp_charges = true
symmetry = false
sym_ignore = true
method = wb97xd
geom_opt_max_cycles = 200
$end

