ALGO = Fast
EDIFF = 1e-06
ENCUT = 600
IBRION = 2
ICHARG = 1
ISIF = 3
ISMEAR = -5
ISPIN = 2
ISTART = 1
LAECHG = False
LORBIT = 11
LREAL = Auto
LWAVE = False
MAGMOM = 2*0.6
NELM = 100
NSW = 99
PREC = Accurate
SIGMA = 0.05
