Si2                                     
   1.0000000000000000     
     3.3481450365524159   -0.0000000010180379    1.9330524648871164
     1.1160480089533753    3.1566613128614556    1.9330524648871161
     0.0000000039333955    0.0000000027813308    3.8661039161485502
   Si
     2
Direct
  0.8750000000000000  0.8750000000000000  0.8750000000000000
  0.1250000000000000  0.1250000000000000  0.1250000000000000

  0.00000000E+00  0.00000000E+00  0.00000000E+00
  0.00000000E+00  0.00000000E+00  0.00000000E+00
