ALGO = Normal
EDIFF = 0.0014
EDIFFG = -0.05
ENCUT = 520
IBRION = -1
ICHARG = 0
ISIF = 3
ISMEAR = -5
ISPIN = 2
ISTART = 1
ISYM = 0
KPAR = 8
KPOINT_BSE = -1 0 0 0
LAECHG = True
LCHARG = False
LCHIMAG = True
LNMR_SYM_RED = True
LORBIT = 11
LREAL = Auto
LVHAR = True
LWAVE = False
MAGMOM = 21*-0.0
NELM = 100
NELMIN = 10
NSLPLINE = True
NSW = 0
PREC = Accurate
SIGMA = 0.01
