Li3 Al3 Si3 O12
1.0
5.297207 0.000000 0.000000
-2.648604 4.587516 0.000000
0.000000 0.000000 11.450304
Li Al Si O
3 3 3 12
direct
0.000000 0.000000 0.000000 Li
0.000000 0.000000 0.666667 Li
0.000000 0.000000 0.333333 Li
0.500000 0.000000 0.500000 Al
0.000000 0.500000 0.833333 Al
0.500000 0.500000 0.166667 Al
0.500000 0.500000 0.666667 Si
0.000000 0.500000 0.333333 Si
0.500000 0.000000 0.000000 Si
0.400184 0.206119 0.588760 O
0.206119 0.805935 0.922094 O
0.194065 0.400184 0.255427 O
0.599816 0.793881 0.588760 O
0.805935 0.206119 0.411240 O
0.793881 0.599816 0.744573 O
0.206119 0.400184 0.744573 O
0.599816 0.805935 0.077906 O
0.400184 0.194065 0.077906 O
0.805935 0.599816 0.255427 O
0.194065 0.793881 0.411240 O
0.793881 0.194065 0.922094 O
