ALGO = Normal
EDIFF = 0.0007
ENCUT = 520
IBRION = -1
ICHARG = 0
ISIF = 3
ISMEAR = 0
ISPIN = 2
ISYM = -1
LORBIT = 11
LREAL = Auto
LWAVE = True
MAGMOM = 14*0.6
NBANDS = 80
NELM = 100
NPAR = 4
NSW = 0
PREC = Accurate
SIGMA = 0.05
