pymatgen v1.1 with grid density = 11 / atom
0
Gamma
1 1 1
