ALGO = Fast
EDIFF = 0.00075
EDIFFG = -0.05
ENCUT = 520
IBRION = 2
ISIF = 3
ISMEAR = -5
ISPIN = 2
KPAR = 8
LASPH = True
LORBIT = 11
LREAL = Auto
LWAVE = False
MAGMOM = 15*1.0
NELM = 100
NSW = 9999
PREC = Accurate
SIGMA = 0.05
