$molecule
 0 2
 C        -1.1122376036   -0.1792247738    0.3471606799
 O        -0.4124836171    0.0542770101   -0.9132190195
 C         0.8498658337    0.6688513317   -0.7956059486
 O         0.9147884506    1.8431292777   -0.2620362158
 O         1.7423476248   -0.3280472615   -0.3110849210
 C         3.0791007010    0.1145577055   -0.1012831895
 C        -2.4084884461   -0.8568010640    0.0489147025
 C        -3.6053798170   -0.3777919699    0.3895343406
 H        -1.2749439471    0.7725006862    0.8622002539
 H        -0.4812963314   -0.8164687327    0.9772745941
 H         3.6539624866   -0.7609728717    0.2026663506
 H         3.5058931408    0.5235197323   -1.0254998079
 H         3.1342999061    0.8757918870    0.6814926606
 H        -2.3356445223   -1.8074140558   -0.4756410660
 H        -4.5188193852   -0.9185651571    0.1664289529
 H        -3.7100899431    0.5690193730    0.9120051543
 Li        0.0138554693    3.3723588830   -0.8437475209
$end

$rem
   basis = 6-311++G**
   gui = 1
   sym_ignore = true
   method = B3LYP
   job_type = freq
   scf_convergence = 6
   solvent_method = PCM
   max_scf_cycles = 300
   gen_scfman = True
$end

$pcm
heavypoints   194
hpoints   194
radii   uff
theory   cpcm
vdwscale   1.0
$end

$solvent
dielectric   10.125
$end


