$molecule
 0 3
 Ni     -1.8682000000      2.3072000000      5.1235000000
 S     -3.6919000000      3.1368000000      6.1126000000
 N     -0.8026000000      3.5955000000      6.5021000000
 H     -0.1140000000      3.0689000000      7.0512000000
 H     -0.2749000000      4.2751000000      5.9396000000
 N     -1.6162000000      4.3303000000      7.4160000000
 N     -3.7322000000      4.8417000000      8.0960000000
 H     -4.7165000000      4.7293000000      7.9269000000
 C     -2.8846000000      4.1812000000      7.2902000000
 C     -3.2583000000      5.7554000000      9.1029000000
 H     -2.6430000000      6.5323000000      8.6440000000
 H     -4.1028000000      6.2091000000      9.6123000000
 H     -2.6383000000      5.2197000000      9.8239000000
 S     -0.0445000000      1.4776000000      4.1344000000
 C     -0.8520000000      0.4332000000      2.9568000000
 N     -2.1204000000      0.2841000000      2.8310000000
 N     -2.9332000000      1.0188000000      3.7449000000
 H     -3.6227000000      1.5457000000      3.1956000000
 H     -3.4618000000      0.3391000000      4.3076000000
 N     -0.0041000000     -0.2271000000      2.1513000000
 H      0.9799000000     -0.1149000000      2.3200000000
 C     -0.4781000000     -1.1407000000      1.1442000000
 H     -1.0938000000     -1.9182000000      1.6032000000
 H      0.3666000000     -1.5949000000      0.6345000000
 H     -1.0984000000     -0.6051000000      0.4229000000
$end

$rem
   job_type = force
   basis = def2-svpd
   max_scf_cycles = 100
   gen_scfman = true
   xc_grid = 3
   thresh = 14
   s2thresh = 16
   scf_algorithm = gdm
   scf_convergence = 6
   resp_charges = false
   symmetry = false
   sym_ignore = true
   method = wb97mv
   ecp = def2-ecp
   solvent_method = pcm
$end

$pcm
heavypoints 194
hpoints 194
radii uff
theory cpcm
vdwscale 1.1
$end

$solvent
dielectric 3.0
$end
