ALGO = Fast
AMIN = 0.01
AMIX = 0.2
BMIX = 0.001
EDIFF = 0.0001
EDIFFG = -0.02
ENCUT = 400
IBRION = 2
ICHARG = 1
ISIF = 2
ISMEAR = 0
ISPIN = 2
ISTART = 1
LORBIT = 11
LREAL = Auto
LVTOT = True
LWAVE = False
MAGMOM = 2*0.6
NELM = 100
NELMIN = 8
NSW = 99
PREC = Accurate
SIGMA = 0.05
