Y2 Mg3 P2 O8
1.0
-5.826356 5.876700 3.061163
5.876700 -5.826356 3.061163
3.255558 3.255558 -2.944324
Y Mg P O
2 3 2 8
direct
0.452737 0.547263 0.000000 Y
0.800249 0.199751 0.500000 Y
0.625000 0.871429 0.744048 Mg
0.588361 0.411639 0.500000 Mg
0.664650 0.335350 0.000000 Mg
0.299110 0.700890 0.500000 P
0.953828 0.046172 0.000000 P
0.755482 0.750596 0.798004 O
0.266703 0.564117 0.674918 O
0.003611 0.502531 0.298050 O
0.817074 0.013726 0.174861 O
0.986274 0.182926 0.825139 O
0.497469 0.996389 0.701950 O
0.435883 0.733297 0.325082 O
0.249404 0.244518 0.201996 O
