Si2                                     
   1.0000000000000000     
     3.1810470000000000   -0.0000000000000000    1.8365780000000000
     1.0603490000000000    2.9991189999999999    1.8365780000000000
     0.0000000000000000    0.0000000000000000    3.6731549999999999
   Si
     2
Direct
  0.8750000000000000  0.8750000000000000  0.8750000000000000
  0.1250000000000000  0.1250000000000000  0.1250000000000000

  0.00000000E+00  0.00000000E+00  0.00000000E+00
  0.00000000E+00  0.00000000E+00  0.00000000E+00
