Si2                                     
   1.00000000000000     
     3.0136229999999999    0.0000000000000000    1.7399160000000000
     1.0045409999999999    2.8412709999999999    1.7399160000000000
     0.0000000000000000    0.0000000000000000    3.4798309999999999
   Si
     2
Direct
  0.8750000000000000  0.8750000000000000  0.8750000000000000
  0.1250000000000000  0.1250000000000000  0.1250000000000000
 
  0.00000000E+00  0.00000000E+00  0.00000000E+00
  0.00000000E+00  0.00000000E+00  0.00000000E+00
