Si2
1.0
0.0000000000000000 2.7343639999999998 2.7343639999999998
2.7343639999999998 0.0000000000000000 2.7343639999999998
2.7343639999999998 2.7343639999999998 0.0000000000000000
Si
2
direct
0.5000000000000000 0.5000000000000000 0.5000000000000000 Si
0.7500000000000000 0.7500000000000000 0.7500000000000000 Si
