Si2
1.0
3.460086 -0.000000 1.997681
1.153362 3.262200 1.997681
0.000000 0.000000 3.995362
Si
2
direct
0.875000 0.875000 0.875000 Si
0.125000 0.125000 0.125000 Si

0.000000 0.000000 0.000000
0.000000 0.000000 0.000000
