pymatgen v2020.11.11 with grid density = 1770 / number of atoms
0
Gamma
5 5 5
