pymatgen generated KPOINTS with grid density = 6920 / atom
0
Gamma
11 9 11
