Si2
1.0
3.867457 0.000000 0.000000
1.933728 3.349317 0.000000
0.000000 -2.232876 3.157766
Si
2
direct
0.001136 0.000267 0.000291 Si
0.748864 0.499733 0.749709 Si
