Si2                                     
   1.0000000000000000     
     3.4489239999999999   -0.0000000000000000    1.9912369999999999
     1.1496409999999999    3.2516769999999999    1.9912369999999999
     0.0000000000000000    0.0000000000000000    3.9824739999999998
   Si
     2
Direct
  0.8750000000000000  0.8750000000000000  0.8750000000000000
  0.1250000000000000  0.1250000000000000  0.1250000000000000

  0.00000000E+00  0.00000000E+00  0.00000000E+00
  0.00000000E+00  0.00000000E+00  0.00000000E+00
