Ba1 Ti1 O3                              
   1.00000000000000     
     4.0084070000000001    0.0000000000000000    0.0000000000000000
     0.0000000000000000    4.0084070000000001    0.0000000000000000
     0.0000000000000000    0.0000000000000000    4.1751440000000004
   Ba   Ti   O 
     1     1     3
Direct
  0.0000000000000000  0.0000000000000000  0.0163900000000012
  0.5000000000000000  0.5000000000000000  0.5308399999999978
  0.0000000000000000  0.5000000000000000  0.4944169999999986
  0.5000000000000000  0.0000000000000000  0.4944169999999986
  0.5000000000000000  0.5000000000000000  0.9779339999999976
 
  0.00000000E+00  0.00000000E+00  0.00000000E+00
  0.00000000E+00  0.00000000E+00  0.00000000E+00
  0.00000000E+00  0.00000000E+00  0.00000000E+00
  0.00000000E+00  0.00000000E+00  0.00000000E+00
  0.00000000E+00  0.00000000E+00  0.00000000E+00
