ALGO = Normal
AMIN = 0.01
AMIX = 0.1
AMIX_MAG = 0.4
BMIX = 0.0001
BMIX_MAG = 0.0001
EDIFF = 1e-06
EDIFFG = -0.05
ENCUT = 400
GGA = RP
IBRION = 2
ICHARG = 1
ISIF = 2
ISMEAR = 0
ISPIN = 2
LORBIT = 11
LREAL = Auto
LWAVE = False
MAGMOM = 17*0.6
NCORE = 8
NELM = 100
NELMIN = 8
NSW = 99
POTIM = 0.25
PREC = Accurate
SIGMA = 0.05
