ADDGRID = True
ALGO = All
BPARAM = 15.7
EDIFF = 1e-05
EDIFFG = -0.02
ENCUT = 680
IBRION = 2
ICHARG = 2
ISIF = 3
ISMEAR = 2
ISPIN = 2
KSPACING = 0.22
LAECHG = True
LASPH = True
LCHARG = True
LELF = True
LMIXTAU = True
LORBIT = 11
LREAL = False
LUSE_VDW = True
LVTOT = True
MAGMOM = 2*0.0
METAGGA = Scan
NELM = 200
NSW = 99
PREC = Accurate
SIGMA = 0.2
