ALGO = All
EDIFF = 1e-05
EDIFFG = -0.02
ENAUG = 1360
ENCUT = 680
IBRION = 2
ICHARG = 1
ISIF = 3
ISMEAR = -5
ISPIN = 2
KSPACING = 0.44
LAECHG = True
LASPH = True
LCHARG = True
LELF = False
LMIXTAU = True
LORBIT = 11
LREAL = Auto
LUSE_VDW = True
BPARAM = 11.95
LVTOT = True
LWAVE = False
MAGMOM = 2*0.6
METAGGA = R2scan
NELM = 200
NSW = 99
PREC = Accurate
SIGMA = 0.05
