Li2
1.0
3.426817 0.000000 0.000000
0.000000 3.426817 0.000000
0.000000 0.000000 3.426817
Li
2
direct
0.000000 0.000000 0.000000 Li
0.500000 0.500000 0.500000 Li
