ALGO = All
EDIFF = 1e-05
EDIFFG = -0.05
ENAUG = 1360
ENCUT = 680
GGA = Ps
IBRION = 2
ISIF = 3
ISMEAR = 2
ISPIN = 2
KSPACING = 0.22
LAECHG = True
LASPH = True
LCHARG = True
LELF = False
LMIXTAU = True
LORBIT = 11
LREAL = Auto
LVTOT = True
LWAVE = False
MAGMOM = 2*0.0
NELM = 200
NSW = 99
PREC = Accurate
SIGMA = 0.2
