Mn8 O16                                 
   1.00000000000000     
     5.7706350000000004    0.0000000000000000    0.0000000000000000
     0.0000000000000000    5.7706350000000004    0.0000000000000000
     0.0000000000000000    0.0000000000000000    8.2099469999999997
   Mn   O 
     8    16
Direct
  0.7500000000000000  0.5000000000000000  0.3750000000000000
  0.0000000000000000  0.2500000000000000  0.1250000000000000
  0.2500000000000000  0.5000000000000000  0.3750000000000000
  0.0000000000000000  0.7500000000000000  0.1250000000000000
  0.2500000000000000  0.0000000000000000  0.8750000000000000
  0.5000000000000000  0.7500000000000000  0.6250000000000000
  0.7500000000000000  0.0000000000000000  0.8750000000000000
  0.5000000000000000  0.2500000000000000  0.6250000000000000
  0.5000000000000000  0.2791799999999967  0.3907519999999991
  0.2791799999999967  0.5000000000000000  0.6092480000000009
  0.7208200000000033  0.5000000000000000  0.6092480000000009
  0.0000000000000000  0.7208200000000033  0.3592480000000009
  0.0000000000000000  0.2791799999999967  0.3592480000000009
  0.2208200000000033  0.5000000000000000  0.1407519999999991
  0.5000000000000000  0.7208200000000033  0.3907519999999991
  0.7791799999999967  0.5000000000000000  0.1407519999999991
  0.0000000000000000  0.7791799999999967  0.8907519999999991
  0.7791799999999967  0.0000000000000000  0.1092480000000009
  0.2208200000000033  0.0000000000000000  0.1092480000000009
  0.5000000000000000  0.2208200000000033  0.8592480000000009
  0.5000000000000000  0.7791799999999967  0.8592480000000009
  0.7208200000000033  0.0000000000000000  0.6407519999999991
  0.0000000000000000  0.2208200000000033  0.8907519999999991
  0.2791799999999967  0.0000000000000000  0.6407519999999991
 
  0.00000000E+00  0.00000000E+00  0.00000000E+00
  0.00000000E+00  0.00000000E+00  0.00000000E+00
  0.00000000E+00  0.00000000E+00  0.00000000E+00
  0.00000000E+00  0.00000000E+00  0.00000000E+00
  0.00000000E+00  0.00000000E+00  0.00000000E+00
  0.00000000E+00  0.00000000E+00  0.00000000E+00
  0.00000000E+00  0.00000000E+00  0.00000000E+00
  0.00000000E+00  0.00000000E+00  0.00000000E+00
  0.00000000E+00  0.00000000E+00  0.00000000E+00
  0.00000000E+00  0.00000000E+00  0.00000000E+00
  0.00000000E+00  0.00000000E+00  0.00000000E+00
  0.00000000E+00  0.00000000E+00  0.00000000E+00
  0.00000000E+00  0.00000000E+00  0.00000000E+00
  0.00000000E+00  0.00000000E+00  0.00000000E+00
  0.00000000E+00  0.00000000E+00  0.00000000E+00
  0.00000000E+00  0.00000000E+00  0.00000000E+00
  0.00000000E+00  0.00000000E+00  0.00000000E+00
  0.00000000E+00  0.00000000E+00  0.00000000E+00
  0.00000000E+00  0.00000000E+00  0.00000000E+00
  0.00000000E+00  0.00000000E+00  0.00000000E+00
  0.00000000E+00  0.00000000E+00  0.00000000E+00
  0.00000000E+00  0.00000000E+00  0.00000000E+00
  0.00000000E+00  0.00000000E+00  0.00000000E+00
  0.00000000E+00  0.00000000E+00  0.00000000E+00
