pymatgen v2019.10.16 with grid density = 1394 / atom
0
Gamma
4 4 3
