H1 Ir16                                 
   1.00000000000000     
     0.0000000000000000   -3.8918960000000000   -3.8918960000000000
     0.0000000000000000   -3.8918960000000000    3.8918960000000000
   -31.1351720000000007    0.0000000000000000    0.0000000000000000
   H    Ir
     1    16
Selective dynamics
Direct
  0.0000000000000000  0.0000000000000000  0.3564361123090988   T   T   T
  0.0000000000000000  0.0000000000000000  0.5312500000000000   F   F   F
  0.0000000000000000  0.5000000000000000  0.5312500000000000   F   F   F
  0.5000000000000000  0.0000000000000000  0.5312500000000000   F   F   F
  0.5000000000000000  0.5000000000000000  0.5312500000000000   F   F   F
  0.2500000000000000  0.2500000000000000  0.5937500000000000   F   F   F
  0.2500000000000000  0.7500000000000000  0.5937500000000000   F   F   F
  0.7500000000000000  0.2500000000000000  0.5937500000000000   F   F   F
  0.7500000000000000  0.7500000000000000  0.5937500000000000   F   F   F
  0.0000000000000000  0.0000000000000000  0.4080445697821390   T   T   T
  0.0000000000000000  0.5000000000000000  0.4093082717004926   T   T   T
  0.5000000000000000  0.0000000000000000  0.4093082717004926   T   T   T
  0.5000000000000000  0.5000000000000000  0.4092741946339957   T   T   T
  0.2500000000000000  0.2500000000000000  0.4687500000000000   F   F   F
  0.2500000000000000  0.7500000000000000  0.4687500000000000   F   F   F
  0.7500000000000000  0.2500000000000000  0.4687500000000000   F   F   F
  0.7500000000000000  0.7500000000000000  0.4687500000000000   F   F   F
 
  0.00000000E+00  0.00000000E+00  0.00000000E+00
  0.00000000E+00  0.00000000E+00  0.00000000E+00
  0.00000000E+00  0.00000000E+00  0.00000000E+00
  0.00000000E+00  0.00000000E+00  0.00000000E+00
  0.00000000E+00  0.00000000E+00  0.00000000E+00
  0.00000000E+00  0.00000000E+00  0.00000000E+00
  0.00000000E+00  0.00000000E+00  0.00000000E+00
  0.00000000E+00  0.00000000E+00  0.00000000E+00
  0.00000000E+00  0.00000000E+00  0.00000000E+00
  0.00000000E+00  0.00000000E+00  0.00000000E+00
  0.00000000E+00  0.00000000E+00  0.00000000E+00
  0.00000000E+00  0.00000000E+00  0.00000000E+00
  0.00000000E+00  0.00000000E+00  0.00000000E+00
  0.00000000E+00  0.00000000E+00  0.00000000E+00
  0.00000000E+00  0.00000000E+00  0.00000000E+00
  0.00000000E+00  0.00000000E+00  0.00000000E+00
  0.00000000E+00  0.00000000E+00  0.00000000E+00
