pymatgen v2020.11.11 with grid density = 1571 / number of atoms
0
Gamma
4 3 6
