$molecule
 0 2
 B      1.5524000000     -0.1080800000     -0.0145400000
 F      1.0165000000      0.0133500000     -1.3604800000
 F      1.0416900000     -1.3209900000      0.6030400000
 F      1.1480800000      1.0446000000      0.7739500000
 F      3.0038900000     -0.1686200000     -0.0743700000
$end

$rem
   job_type = opt
   basis = 6-311++g*
   max_scf_cycles = 200
   gen_scfman = true
   scf_algorithm = gdm
   method = wb97xd
   geom_opt_max_cycles = 200
$end
