$molecule
 0 2
 B      0.1981399060      0.0136761356      0.0300117960
 F      0.7838404572      1.2015141336      0.0277958698
 F      0.9085904211     -1.0872275045      0.2257519057
 F     -0.7986028360     -0.1383481996     -1.0899514951
 F     -1.0918799663      0.0103801870      0.8064067306
$end

$rem
   job_type = freq
   basis = 6-311++g*
   max_scf_cycles = 200
   gen_scfman = true
   scf_algorithm = gdm
   method = wb97xd
   geom_opt_max_cycles = 200
$end
