$molecule
 0 1
 O     -1.1022000000     -2.0244000000      0.0007000000
 O      1.1023000000     -2.0243000000      0.0007000000
 O      0.0000000000      0.0000000000      0.0000000000
 C     -2.3611000000     -1.3429000000     -0.0003000000
 C      2.3610000000     -1.3429000000     -0.0003000000
 C     -3.4760000000     -2.3669000000     -0.0003000000
 C      3.4760000000     -2.3669000000     -0.0003000000
 C      0.0000000000     -1.2236000000      0.0007000000
 H     -2.4364000000     -0.7137000000      0.8935000000
 H     -2.4355000000     -0.7147000000     -0.8950000000
 H      2.4354000000     -0.7147000000     -0.8950000000
 H      2.4363000000     -0.7136000000      0.8935000000
 H     -4.4549000000     -1.8793000000     -0.0011000000
 H     -3.4035000000     -3.0157000000     -0.8794000000
 H     -3.4043000000     -3.0147000000      0.8796000000
 H      4.4549000000     -1.8793000000     -0.0010000000
 H      3.4043000000     -3.0147000000      0.8797000000
 H      3.4035000000     -3.0157000000     -0.8793000000
$end

$rem
   job_type = opt
   basis = 6-311++g*
   max_scf_cycles = 200
   gen_scfman = true
   scf_algorithm = gdm
   method = wb97xd
   geom_opt_max_cycles = 200
$end
