$molecule
 0 1
 O      1.0779461358      0.4156058164     -0.0001699550
 O     -1.0779251904      0.4156006725     -0.0001642688
 O      0.0000153960     -1.5660514257     -0.0007249284
 C      2.3378573525     -0.2740876603     -0.0003657878
 C     -2.3378312132     -0.2740971318     -0.0003549504
 C      3.4279270160      0.7710482239     -0.0001105907
 C     -3.4279073909      0.7710326145     -0.0000792947
 C      0.0000129302     -0.3621017209     -0.0004221015
 H      2.3882948054     -0.9152360994      0.8828499512
 H      2.3882644537     -0.9147824530     -0.8839115151
 H     -2.3882452303     -0.9147842799     -0.8839062385
 H     -2.3882596941     -0.9152554460      0.8828543780
 H      4.4046080060      0.2804615390     -0.0002569863
 H      3.3637054397      1.4058853949     -0.8861777077
 H      3.3637451825      1.4054192249      0.8862932609
 H     -4.4045853461      0.2804399688     -0.0002204135
 H     -3.3637203204      1.4053962834      0.8863294289
 H     -3.3636986218      1.4058782794     -0.8861413840
$end

$rem
   job_type = freq
   basis = 6-311++g*
   max_scf_cycles = 200
   gen_scfman = true
   scf_algorithm = gdm
   method = wb97xd
   geom_opt_max_cycles = 200
$end
