#Generated by pymatgen
0
Gamma
8 8 8
0 0 0
