pymatgen generated KPOINTS with grid density = 6920 / atom
0
Gamma
11 11 9
