pymatgen generated KPOINTS with grid density = 1000 / atom
0
Gamma
3 3 3
