pymatgen v1.1 with grid density = 100 / atom
0
Gamma
3 3 3
