ALGO = Fast
EDIFF = 0.0001
EDIFFG = -0.02
ENCUT = 400
IBRION = 2
ICHARG = 1
ISIF = 3
ISMEAR = 0
ISPIN = 2
ISTART = 1
LORBIT = 11
LREAL = Auto
LWAVE = False
MAGMOM = 2*0.6
NELM = 100
NSW = 99
PREC = Accurate
SIGMA = 0.05
