Si2                                     
   1.00000000000000     
     3.8674569999999999    0.0000000000000000    0.0000000000000000
     1.9337279999999999    3.3493170000000001    0.0000000000000000
     0.0000000000000000   -2.2328760000000001    3.1577660000000001
   Si
     2
Direct
  0.0011360000000025  0.0002670000000009  0.0002909999999972
  0.7488639999999975  0.4997329999999991  0.7497090000000028
 
  0.00000000E+00  0.00000000E+00  0.00000000E+00
  0.00000000E+00  0.00000000E+00  0.00000000E+00
