$molecule
 0 3
 C     -3.3499000000     -0.7212000000      3.3379000000
 C     -7.6767000000     -0.3488000000      4.2729000000
 C     -4.3301000000      0.1660000000      2.5789000000
 C     -5.6334000000      0.4285000000      3.3242000000
 C     -6.6873000000     -1.6133000000      2.4583000000
 C     -5.8881000000     -2.9237000000      2.4888000000
 C     -4.3594000000     -2.7850000000      2.4722000000
 C     -2.7755000000     -2.8252000000      4.3011000000
 C     -3.3707000000     -4.0869000000      5.0349000000
 C     -8.2881000000     -1.5188000000      5.1337000000
 H     -2.4308000000     -0.8061000000      2.7352000000
 H     -7.4754000000      0.4568000000      4.9831000000
 H     -3.8421000000      1.1306000000      2.4247000000
 H     -5.4007000000      0.9228000000      4.2713000000
 H     -6.4879000000     -1.0554000000      1.5372000000
 H     -6.1727000000     -3.4800000000      3.4043000000
 H     -3.9478000000     -3.7979000000      2.4825000000
 H     -2.3127000000     -2.2156000000      5.0824000000
 H     -3.0950000000     -0.2340000000      4.2831000000
 H     -8.4171000000     -0.0010000000      3.5443000000
 H     -4.5319000000     -0.2444000000      1.5905000000
 H     -6.2407000000      1.1168000000      2.7154000000
 H     -7.7460000000     -1.8874000000      2.4553000000
 H     -6.1865000000     -3.5346000000      1.6346000000
 H     -4.0209000000     -2.2993000000      1.5513000000
 H     -2.0019000000     -3.1404000000      3.5913000000
 Ni     -5.5439000000     -2.2436000000      5.0730000000
 N     -3.8472000000     -2.0641000000      3.6569000000
 N     -6.4244000000     -0.7674000000      3.6409000000
 O     -4.4872000000     -3.8515000000      5.5796000000
 O     -7.4048000000     -2.2055000000      5.7232000000
 O     -2.7302000000     -5.1129000000      5.0455000000
 O     -9.4912000000     -1.6247000000      5.1995000000
 O     -4.9219000000     -1.3818000000      7.0412000000
 H     -5.8008000000     -1.3449000000      7.4422000000
 H     -4.5261000000     -2.2072000000      7.3576000000
$end

$rem
   job_type = force
   basis = def2-svpd
   max_scf_cycles = 100
   gen_scfman = true
   xc_grid = 3
   thresh = 14
   s2thresh = 16
   scf_algorithm = gdm
   resp_charges = false
   symmetry = false
   sym_ignore = true
   method = wb97mv
   nbo = true
   nbo_external = true
   ecp = def2-ecp
   scf_convergence = 5
   ks_gap_print = true
$end

$nbo
   e2pert = 0.1
$end
