Si2                                     
   1.00000000000000     
     3.5344959999999999    0.0000000000000000    2.0406420000000001
     1.1781649999999999    3.3323550000000002    2.0406420000000001
     0.0000000000000000    0.0000000000000000    4.0812840000000001
   Si
     2
Direct
  0.8750000000000000  0.8750000000000000  0.8750000000000000
  0.1250000000000000  0.1250000000000000  0.1250000000000000
 
  0.00000000E+00  0.00000000E+00  0.00000000E+00
  0.00000000E+00  0.00000000E+00  0.00000000E+00
