Ir4
1.0
3.875728 0.000000 0.000000
0.000000 3.875728 0.000000
0.000000 0.000000 3.875728
Ir
4
direct
0.000000 0.000000 0.000000 Ir
0.000000 0.500000 0.500000 Ir
0.500000 0.000000 0.500000 Ir
0.500000 0.500000 0.000000 Ir
