Ir2
1.0
1.937864 -0.000000 1.937864
1.937864 -0.000000 -1.937864
-0.000000 3.875728 -0.000000
Ir
2
direct
0.000000 0.000000 0.000000 Ir
0.500000 0.500000 0.500000 Ir
