Si2
1.0
3.867457 0.000000 0.000000
1.933728 3.349317 0.000000
-0.000000 -2.232876 3.157766
Si
2
direct
-0.000000 0.000000 -0.000000 Si
0.750000 0.500000 0.750000 Si
