Si2
1.0
3.608907 -0.000000 2.083603
1.202969 3.402510 2.083603
0.000000 0.000000 4.167205
Si
2
direct
0.875000 0.875000 0.875000 Si
0.125000 0.125000 0.125000 Si

0.000000 0.000000 0.000000
0.000000 0.000000 0.000000
