Si2
1.0
3.088033 -0.000000 1.782877
1.029344 2.911426 1.782877
0.000000 0.000000 3.565753
Si
2
direct
0.875000 0.875000 0.875000 Si
0.125000 0.125000 0.125000 Si

0.000000 0.000000 0.000000
0.000000 0.000000 0.000000
