Non SCF run on uniform grid
195
Reciprocal
0.0 0.0 0.0 1 None
0.0555555555556 0.0 0.0 8 None
0.111111111111 0.0 0.0 8 None
0.166666666667 0.0 0.0 8 None
0.222222222222 0.0 0.0 8 None
0.277777777778 0.0 0.0 8 None
0.333333333333 0.0 0.0 8 None
0.388888888889 0.0 0.0 8 None
0.444444444444 0.0 0.0 8 None
0.5 0.0 0.0 4 None
0.0 0.0555555555556 0.0 6 None
0.111111111111 0.0555555555556 0.0 12 None
0.166666666667 0.0555555555556 0.0 24 None
0.222222222222 0.0555555555556 0.0 24 None
0.277777777778 0.0555555555556 0.0 24 None
0.333333333333 0.0555555555556 0.0 24 None
0.388888888889 0.0555555555556 0.0 24 None
0.444444444444 0.0555555555556 0.0 24 None
0.5 0.0555555555556 0.0 24 None
-0.444444444444 0.0555555555556 0.0 24 None
-0.388888888889 0.0555555555556 0.0 24 None
-0.333333333333 0.0555555555556 0.0 24 None
-0.277777777778 0.0555555555556 0.0 24 None
-0.222222222222 0.0555555555556 0.0 24 None
-0.166666666667 0.0555555555556 0.0 24 None
-0.111111111111 0.0555555555556 0.0 24 None
-0.0555555555556 0.0555555555556 0.0 24 None
0.0 0.111111111111 0.0 6 None
0.222222222222 0.111111111111 0.0 12 None
0.277777777778 0.111111111111 0.0 24 None
0.333333333333 0.111111111111 0.0 24 None
0.388888888889 0.111111111111 0.0 24 None
0.444444444444 0.111111111111 0.0 24 None
0.5 0.111111111111 0.0 24 None
-0.444444444444 0.111111111111 0.0 24 None
-0.388888888889 0.111111111111 0.0 24 None
-0.333333333333 0.111111111111 0.0 24 None
-0.277777777778 0.111111111111 0.0 24 None
-0.222222222222 0.111111111111 0.0 24 None
-0.166666666667 0.111111111111 0.0 24 None
-0.111111111111 0.111111111111 0.0 24 None
-0.0555555555556 0.111111111111 0.0 24 None
0.0 0.166666666667 0.0 6 None
0.333333333333 0.166666666667 0.0 12 None
0.388888888889 0.166666666667 0.0 24 None
0.444444444444 0.166666666667 0.0 24 None
0.5 0.166666666667 0.0 24 None
-0.444444444444 0.166666666667 0.0 24 None
-0.388888888889 0.166666666667 0.0 24 None
-0.333333333333 0.166666666667 0.0 24 None
-0.277777777778 0.166666666667 0.0 24 None
-0.222222222222 0.166666666667 0.0 24 None
-0.166666666667 0.166666666667 0.0 24 None
-0.111111111111 0.166666666667 0.0 24 None
-0.0555555555556 0.166666666667 0.0 24 None
0.0 0.222222222222 0.0 6 None
0.444444444444 0.222222222222 0.0 12 None
0.5 0.222222222222 0.0 24 None
-0.444444444444 0.222222222222 0.0 24 None
-0.388888888889 0.222222222222 0.0 24 None
-0.333333333333 0.222222222222 0.0 24 None
-0.277777777778 0.222222222222 0.0 24 None
-0.222222222222 0.222222222222 0.0 24 None
-0.166666666667 0.222222222222 0.0 24 None
-0.111111111111 0.222222222222 0.0 24 None
-0.0555555555556 0.222222222222 0.0 24 None
0.0 0.277777777778 0.0 6 None
-0.444444444444 0.277777777778 0.0 12 None
-0.388888888889 0.277777777778 0.0 24 None
-0.333333333333 0.277777777778 0.0 24 None
-0.277777777778 0.277777777778 0.0 24 None
-0.222222222222 0.277777777778 0.0 24 None
-0.166666666667 0.277777777778 0.0 24 None
-0.111111111111 0.277777777778 0.0 24 None
-0.0555555555556 0.277777777778 0.0 24 None
0.0 0.333333333333 0.0 6 None
-0.333333333333 0.333333333333 0.0 12 None
-0.277777777778 0.333333333333 0.0 24 None
-0.222222222222 0.333333333333 0.0 24 None
-0.166666666667 0.333333333333 0.0 24 None
-0.111111111111 0.333333333333 0.0 24 None
-0.0555555555556 0.333333333333 0.0 24 None
0.0 0.388888888889 0.0 6 None
-0.222222222222 0.388888888889 0.0 12 None
-0.166666666667 0.388888888889 0.0 24 None
-0.111111111111 0.388888888889 0.0 24 None
-0.0555555555556 0.388888888889 0.0 24 None
0.0 0.444444444444 0.0 6 None
-0.111111111111 0.444444444444 0.0 12 None
-0.0555555555556 0.444444444444 0.0 24 None
0.0 0.5 0.0 3 None
0.166666666667 0.0555555555556 0.0555555555556 24 None
0.222222222222 0.0555555555556 0.0555555555556 48 None
0.277777777778 0.0555555555556 0.0555555555556 48 None
0.333333333333 0.0555555555556 0.0555555555556 48 None
0.388888888889 0.0555555555556 0.0555555555556 48 None
0.444444444444 0.0555555555556 0.0555555555556 48 None
0.5 0.0555555555556 0.0555555555556 48 None
-0.444444444444 0.0555555555556 0.0555555555556 24 None
0.277777777778 0.111111111111 0.0555555555556 24 None
0.333333333333 0.111111111111 0.0555555555556 48 None
0.388888888889 0.111111111111 0.0555555555556 48 None
0.444444444444 0.111111111111 0.0555555555556 48 None
0.5 0.111111111111 0.0555555555556 48 None
-0.444444444444 0.111111111111 0.0555555555556 48 None
-0.388888888889 0.111111111111 0.0555555555556 48 None
-0.333333333333 0.111111111111 0.0555555555556 48 None
-0.277777777778 0.111111111111 0.0555555555556 48 None
-0.222222222222 0.111111111111 0.0555555555556 48 None
-0.166666666667 0.111111111111 0.0555555555556 48 None
-0.111111111111 0.111111111111 0.0555555555556 48 None
-0.0555555555556 0.111111111111 0.0555555555556 24 None
0.388888888889 0.166666666667 0.0555555555556 24 None
0.444444444444 0.166666666667 0.0555555555556 48 None
0.5 0.166666666667 0.0555555555556 48 None
-0.444444444444 0.166666666667 0.0555555555556 48 None
-0.388888888889 0.166666666667 0.0555555555556 48 None
-0.333333333333 0.166666666667 0.0555555555556 48 None
-0.277777777778 0.166666666667 0.0555555555556 48 None
-0.222222222222 0.166666666667 0.0555555555556 48 None
-0.166666666667 0.166666666667 0.0555555555556 48 None
-0.111111111111 0.166666666667 0.0555555555556 48 None
-0.0555555555556 0.166666666667 0.0555555555556 24 None
0.5 0.222222222222 0.0555555555556 24 None
-0.444444444444 0.222222222222 0.0555555555556 48 None
-0.388888888889 0.222222222222 0.0555555555556 48 None
-0.333333333333 0.222222222222 0.0555555555556 48 None
-0.277777777778 0.222222222222 0.0555555555556 48 None
-0.222222222222 0.222222222222 0.0555555555556 48 None
-0.166666666667 0.222222222222 0.0555555555556 48 None
-0.111111111111 0.222222222222 0.0555555555556 48 None
-0.0555555555556 0.222222222222 0.0555555555556 24 None
-0.388888888889 0.277777777778 0.0555555555556 24 None
-0.333333333333 0.277777777778 0.0555555555556 48 None
-0.277777777778 0.277777777778 0.0555555555556 48 None
-0.222222222222 0.277777777778 0.0555555555556 48 None
-0.166666666667 0.277777777778 0.0555555555556 48 None
-0.111111111111 0.277777777778 0.0555555555556 48 None
-0.0555555555556 0.277777777778 0.0555555555556 24 None
-0.277777777778 0.333333333333 0.0555555555556 24 None
-0.222222222222 0.333333333333 0.0555555555556 48 None
-0.166666666667 0.333333333333 0.0555555555556 48 None
-0.111111111111 0.333333333333 0.0555555555556 48 None
-0.0555555555556 0.333333333333 0.0555555555556 24 None
-0.166666666667 0.388888888889 0.0555555555556 24 None
-0.111111111111 0.388888888889 0.0555555555556 48 None
-0.0555555555556 0.388888888889 0.0555555555556 24 None
-0.0555555555556 0.444444444444 0.0555555555556 12 None
0.333333333333 0.111111111111 0.111111111111 24 None
0.388888888889 0.111111111111 0.111111111111 48 None
0.444444444444 0.111111111111 0.111111111111 48 None
0.5 0.111111111111 0.111111111111 48 None
-0.444444444444 0.111111111111 0.111111111111 48 None
-0.388888888889 0.111111111111 0.111111111111 24 None
0.444444444444 0.166666666667 0.111111111111 24 None
0.5 0.166666666667 0.111111111111 48 None
-0.444444444444 0.166666666667 0.111111111111 48 None
-0.388888888889 0.166666666667 0.111111111111 48 None
-0.333333333333 0.166666666667 0.111111111111 48 None
-0.277777777778 0.166666666667 0.111111111111 48 None
-0.222222222222 0.166666666667 0.111111111111 48 None
-0.166666666667 0.166666666667 0.111111111111 48 None
-0.111111111111 0.166666666667 0.111111111111 24 None
-0.444444444444 0.222222222222 0.111111111111 24 None
-0.388888888889 0.222222222222 0.111111111111 48 None
-0.333333333333 0.222222222222 0.111111111111 48 None
-0.277777777778 0.222222222222 0.111111111111 48 None
-0.222222222222 0.222222222222 0.111111111111 48 None
-0.166666666667 0.222222222222 0.111111111111 48 None
-0.111111111111 0.222222222222 0.111111111111 24 None
-0.333333333333 0.277777777778 0.111111111111 24 None
-0.277777777778 0.277777777778 0.111111111111 48 None
-0.222222222222 0.277777777778 0.111111111111 48 None
-0.166666666667 0.277777777778 0.111111111111 48 None
-0.111111111111 0.277777777778 0.111111111111 24 None
-0.222222222222 0.333333333333 0.111111111111 24 None
-0.166666666667 0.333333333333 0.111111111111 48 None
-0.111111111111 0.333333333333 0.111111111111 24 None
-0.111111111111 0.388888888889 0.111111111111 12 None
0.5 0.166666666667 0.166666666667 24 None
-0.444444444444 0.166666666667 0.166666666667 48 None
-0.388888888889 0.166666666667 0.166666666667 48 None
-0.333333333333 0.166666666667 0.166666666667 24 None
-0.388888888889 0.222222222222 0.166666666667 24 None
-0.333333333333 0.222222222222 0.166666666667 48 None
-0.277777777778 0.222222222222 0.166666666667 48 None
-0.222222222222 0.222222222222 0.166666666667 48 None
-0.166666666667 0.222222222222 0.166666666667 24 None
-0.277777777778 0.277777777778 0.166666666667 24 None
-0.222222222222 0.277777777778 0.166666666667 48 None
-0.166666666667 0.277777777778 0.166666666667 24 None
-0.166666666667 0.333333333333 0.166666666667 12 None
-0.333333333333 0.222222222222 0.222222222222 24 None
-0.277777777778 0.222222222222 0.222222222222 24 None
-0.222222222222 0.277777777778 0.222222222222 12 None