Automatic kpoint scheme
0
Monkhorst
8 8 8