Non SCF run on uniform grid
145
Reciprocal
0.0 0.0 0.0 1
0.0625 0.0 0.0 8
0.125 0.0 0.0 8
0.1875 0.0 0.0 8
0.25 0.0 0.0 8
0.3125 0.0 0.0 8
0.375 0.0 0.0 8
0.4375 0.0 0.0 8
0.5 0.0 0.0 4
0.0 0.0625 0.0 6
0.125 0.0625 0.0 12
0.1875 0.0625 0.0 24
0.25 0.0625 0.0 24
0.3125 0.0625 0.0 24
0.375 0.0625 0.0 24
0.4375 0.0625 0.0 24
0.5 0.0625 0.0 24
-0.4375 0.0625 0.0 24
-0.375 0.0625 0.0 24
-0.3125 0.0625 0.0 24
-0.25 0.0625 0.0 24
-0.1875 0.0625 0.0 24
-0.125 0.0625 0.0 24
-0.0625 0.0625 0.0 24
0.0 0.125 0.0 6
0.25 0.125 0.0 12
0.3125 0.125 0.0 24
0.375 0.125 0.0 24
0.4375 0.125 0.0 24
0.5 0.125 0.0 24
-0.4375 0.125 0.0 24
-0.375 0.125 0.0 24
-0.3125 0.125 0.0 24
-0.25 0.125 0.0 24
-0.1875 0.125 0.0 24
-0.125 0.125 0.0 24
-0.0625 0.125 0.0 24
0.0 0.1875 0.0 6
0.375 0.1875 0.0 12
0.4375 0.1875 0.0 24
0.5 0.1875 0.0 24
-0.4375 0.1875 0.0 24
-0.375 0.1875 0.0 24
-0.3125 0.1875 0.0 24
-0.25 0.1875 0.0 24
-0.1875 0.1875 0.0 24
-0.125 0.1875 0.0 24
-0.0625 0.1875 0.0 24
0.0 0.25 0.0 6
0.5 0.25 0.0 12
-0.4375 0.25 0.0 24
-0.375 0.25 0.0 24
-0.3125 0.25 0.0 24
-0.25 0.25 0.0 24
-0.1875 0.25 0.0 24
-0.125 0.25 0.0 24
-0.0625 0.25 0.0 24
0.0 0.3125 0.0 6
-0.375 0.3125 0.0 12
-0.3125 0.3125 0.0 24
-0.25 0.3125 0.0 24
-0.1875 0.3125 0.0 24
-0.125 0.3125 0.0 24
-0.0625 0.3125 0.0 24
0.0 0.375 0.0 6
-0.25 0.375 0.0 12
-0.1875 0.375 0.0 24
-0.125 0.375 0.0 24
-0.0625 0.375 0.0 24
0.0 0.4375 0.0 6
-0.125 0.4375 0.0 12
-0.0625 0.4375 0.0 24
0.0 0.5 0.0 3
0.1875 0.0625 0.0625 24
0.25 0.0625 0.0625 48
0.3125 0.0625 0.0625 48
0.375 0.0625 0.0625 48
0.4375 0.0625 0.0625 48
0.5 0.0625 0.0625 48
-0.4375 0.0625 0.0625 24
0.3125 0.125 0.0625 24
0.375 0.125 0.0625 48
0.4375 0.125 0.0625 48
0.5 0.125 0.0625 48
-0.4375 0.125 0.0625 48
-0.375 0.125 0.0625 48
-0.3125 0.125 0.0625 48
-0.25 0.125 0.0625 48
-0.1875 0.125 0.0625 48
-0.125 0.125 0.0625 48
-0.0625 0.125 0.0625 24
0.4375 0.1875 0.0625 24
0.5 0.1875 0.0625 48
-0.4375 0.1875 0.0625 48
-0.375 0.1875 0.0625 48
-0.3125 0.1875 0.0625 48
-0.25 0.1875 0.0625 48
-0.1875 0.1875 0.0625 48
-0.125 0.1875 0.0625 48
-0.0625 0.1875 0.0625 24
-0.4375 0.25 0.0625 24
-0.375 0.25 0.0625 48
-0.3125 0.25 0.0625 48
-0.25 0.25 0.0625 48
-0.1875 0.25 0.0625 48
-0.125 0.25 0.0625 48
-0.0625 0.25 0.0625 24
-0.3125 0.3125 0.0625 24
-0.25 0.3125 0.0625 48
-0.1875 0.3125 0.0625 48
-0.125 0.3125 0.0625 48
-0.0625 0.3125 0.0625 24
-0.1875 0.375 0.0625 24
-0.125 0.375 0.0625 48
-0.0625 0.375 0.0625 24
-0.0625 0.4375 0.0625 12
0.375 0.125 0.125 24
0.4375 0.125 0.125 48
0.5 0.125 0.125 48
-0.4375 0.125 0.125 48
-0.375 0.125 0.125 24
0.5 0.1875 0.125 24
-0.4375 0.1875 0.125 48
-0.375 0.1875 0.125 48
-0.3125 0.1875 0.125 48
-0.25 0.1875 0.125 48
-0.1875 0.1875 0.125 48
-0.125 0.1875 0.125 24
-0.375 0.25 0.125 24
-0.3125 0.25 0.125 48
-0.25 0.25 0.125 48
-0.1875 0.25 0.125 48
-0.125 0.25 0.125 24
-0.25 0.3125 0.125 24
-0.1875 0.3125 0.125 48
-0.125 0.3125 0.125 24
-0.125 0.375 0.125 12
-0.4375 0.1875 0.1875 24
-0.375 0.1875 0.1875 48
-0.3125 0.1875 0.1875 24
-0.3125 0.25 0.1875 24
-0.25 0.25 0.1875 48
-0.1875 0.25 0.1875 24
-0.1875 0.3125 0.1875 12
-0.25 0.25 0.25 6
