Li1 Mn8 O16                             
   1.00000000000000     
     5.7706350000000004    0.0000000000000000    0.0000000000000000
     0.0000000000000000    5.7706350000000004    0.0000000000000000
     0.0000000000000000    0.0000000000000000    8.2099469999999997
   Li   Mn   O 
     1     8    16
Selective dynamics
Direct
  0.0001589999999965  0.0000039999999970  0.4999699999999976   F   F   F
  0.7500000000000000  0.5000000000000000  0.3750000000000000   T   T   T
  0.0000000000000000  0.2500000000000000  0.1250000000000000   T   T   T
  0.2500000000000000  0.5000000000000000  0.3750000000000000   T   T   T
  0.0000000000000000  0.7500000000000000  0.1250000000000000   T   T   T
  0.2500000000000000  0.0000000000000000  0.8750000000000000   T   T   T
  0.5000000000000000  0.7500000000000000  0.6250000000000000   T   T   T
  0.7500000000000000  0.0000000000000000  0.8750000000000000   T   T   T
  0.5000000000000000  0.2500000000000000  0.6250000000000000   T   T   T
  0.5000000000000000  0.2791799999999967  0.3907519999999991   T   T   T
  0.2791799999999967  0.5000000000000000  0.6092480000000009   T   T   T
  0.7208200000000033  0.5000000000000000  0.6092480000000009   T   T   T
  0.0000000000000000  0.7208200000000033  0.3592480000000009   T   T   T
  0.0000000000000000  0.2791799999999967  0.3592480000000009   T   T   T
  0.2208200000000033  0.5000000000000000  0.1407519999999991   T   T   T
  0.5000000000000000  0.7208200000000033  0.3907519999999991   T   T   T
  0.7791799999999967  0.5000000000000000  0.1407519999999991   F   F   F
  0.0000000000000000  0.7791799999999967  0.8907519999999991   T   T   T
  0.7791799999999967  0.0000000000000000  0.1092480000000009   T   T   T
  0.2208200000000033  0.0000000000000000  0.1092480000000009   T   T   T
  0.5000000000000000  0.2208200000000033  0.8592480000000009   T   T   T
  0.5000000000000000  0.7791799999999967  0.8592480000000009   T   T   T
  0.7208200000000033  0.0000000000000000  0.6407519999999991   T   T   T
  0.0000000000000000  0.2208200000000033  0.8907519999999991   T   T   T
  0.2791799999999967  0.0000000000000000  0.6407519999999991   T   T   T
 
  0.00000000E+00  0.00000000E+00  0.00000000E+00
  0.00000000E+00  0.00000000E+00  0.00000000E+00
  0.00000000E+00  0.00000000E+00  0.00000000E+00
  0.00000000E+00  0.00000000E+00  0.00000000E+00
  0.00000000E+00  0.00000000E+00  0.00000000E+00
  0.00000000E+00  0.00000000E+00  0.00000000E+00
  0.00000000E+00  0.00000000E+00  0.00000000E+00
  0.00000000E+00  0.00000000E+00  0.00000000E+00
  0.00000000E+00  0.00000000E+00  0.00000000E+00
  0.00000000E+00  0.00000000E+00  0.00000000E+00
  0.00000000E+00  0.00000000E+00  0.00000000E+00
  0.00000000E+00  0.00000000E+00  0.00000000E+00
  0.00000000E+00  0.00000000E+00  0.00000000E+00
  0.00000000E+00  0.00000000E+00  0.00000000E+00
  0.00000000E+00  0.00000000E+00  0.00000000E+00
  0.00000000E+00  0.00000000E+00  0.00000000E+00
  0.00000000E+00  0.00000000E+00  0.00000000E+00
  0.00000000E+00  0.00000000E+00  0.00000000E+00
  0.00000000E+00  0.00000000E+00  0.00000000E+00
  0.00000000E+00  0.00000000E+00  0.00000000E+00
  0.00000000E+00  0.00000000E+00  0.00000000E+00
  0.00000000E+00  0.00000000E+00  0.00000000E+00
  0.00000000E+00  0.00000000E+00  0.00000000E+00
  0.00000000E+00  0.00000000E+00  0.00000000E+00
  0.00000000E+00  0.00000000E+00  0.00000000E+00
