ALGO = Fast
EDIFF = 0.01
EDIFFG = 0
ENCUT = 520
IBRION = 1
ICHARG = 1
ISIF = 2
ISMEAR = -5
ISPIN = 2
ISYM = 0
LORBIT = 11
LREAL = Auto
LWAVE = False
MAGMOM = 1*0.6 8*5.0 16*0.6
NELM = 100
NELMIN = 1
NSW = 0
PREC = Accurate
SIGMA = 0.05
