pymatgen generated KPOINTS with grid density = 944 / atom
0
Gamma
6 6 6
