$molecule
 -2 2
 S     -1.1408748192      0.8527464235     -0.0736155869
 S      1.1408278580     -0.8526870677     -0.0736168858
 O     -1.6237636360      1.8516556037     -1.0049437043
 C      2.5517736501      0.3739697416      0.0238707855
 N     -0.0000306574      0.0000138173     -0.7905593654
$end

$rem
   job_type = opt
   basis = 6-311++g*
   max_scf_cycles = 200
   gen_scfman = true
   scf_algorithm = gdm
   method = wb97xd
   geom_opt_max_cycles = 200
$end
