ADDGRID = True
ALGO = Normal
EDIFF = 1e-08
ENCUT = 700
IBRION = -1
ICHARG = 0
ISIF = 3
ISMEAR = 0
ISPIN = 2
LAECHG = False
LASPH = True
LCHARG = False
LORBIT = 11
LREAL = False
LVHAR = True
LWAVE = False
MAGMOM = 128*0.6
NELM = 100
NSW = 0
PREC = Accurate
SIGMA = 0.05
