pymatgen v2020.1.28 with grid density = 1239 / atom
0
Monkhorst
2 2 2
