Si128
1.0
15.360792 0.000000 0.000000
7.680396 13.302841 0.000000
0.000000 -8.868554 12.542036
Si
128
direct
0.004419 -0.000206 -0.000856 Si
0.001716 -0.001367 0.250994 Si
0.002871 -0.004453 0.496571 Si
0.000199 0.001004 0.750643 Si
-0.000672 0.253464 0.002350 Si
-0.003594 0.251178 0.252602 Si
0.000081 0.250947 0.503137 Si
0.000449 0.249353 0.751900 Si
0.002693 0.497479 -0.004425 Si
0.000960 0.496715 0.245595 Si
-0.000752 0.502784 0.499361 Si
-0.007283 0.500032 0.753217 Si
0.003741 0.749200 -0.000740 Si
-0.001400 0.749737 0.250047 Si
0.000132 0.751798 0.500399 Si
-0.001588 0.750422 0.746906 Si
0.252396 -0.000527 -0.001692 Si
0.247616 0.000719 0.246260 Si
0.251735 -0.000509 0.501759 Si
0.250663 -0.002549 0.746700 Si
0.243529 0.250402 -0.003080 Si
0.248591 0.253497 0.252598 Si
0.251067 0.251146 0.501087 Si
0.253028 0.248259 0.748963 Si
0.252229 0.497433 -0.005447 Si
0.255737 0.495567 0.247760 Si
0.256858 0.498454 0.497979 Si
0.250017 0.494558 0.749618 Si
0.253598 0.748814 -0.002255 Si
0.249361 0.748185 0.249731 Si
0.249074 0.745734 0.495905 Si
0.245320 0.751543 0.750463 Si
0.500627 0.004722 0.006082 Si
0.500585 0.000886 0.248733 Si
0.500080 -0.004574 0.496196 Si
0.500977 0.001687 0.752934 Si
0.500895 0.249757 -0.001718 Si
0.497767 0.250410 0.249989 Si
0.502624 0.252356 0.504582 Si
0.502054 0.251831 0.748284 Si
0.502678 0.496720 -0.003033 Si
0.502103 0.496828 0.249518 Si
0.498530 0.497817 0.499945 Si
0.501845 0.497086 0.747815 Si
0.499688 0.749119 -0.001771 Si
0.498626 0.756874 0.251304 Si
0.495511 0.752555 0.501879 Si
0.501056 0.750903 0.751113 Si
0.751824 -0.001653 0.003010 Si
0.752569 -0.006292 0.250890 Si
0.749700 0.000960 0.501732 Si
0.747081 0.001600 0.753815 Si
0.749716 0.250449 0.002061 Si
0.747165 0.254844 0.249754 Si
0.747741 0.250044 0.499631 Si
0.749158 0.252723 0.750535 Si
0.753785 0.498736 0.000233 Si
0.750250 0.507911 0.255749 Si
0.748354 0.500599 0.498820 Si
0.752714 0.493600 0.743093 Si
0.746217 0.749203 -0.002251 Si
0.755075 0.749992 0.247867 Si
0.749259 0.752119 0.502124 Si
0.747662 0.751824 0.753020 Si
0.186204 0.127200 0.188827 Si
0.188356 0.124138 0.439900 Si
0.185286 0.125426 0.687308 Si
0.189301 0.124669 0.937938 Si
0.189908 0.371564 0.189809 Si
0.186088 0.377527 0.439945 Si
0.185459 0.374256 0.687623 Si
0.187870 0.377619 0.940800 Si
0.183809 0.631022 0.188910 Si
0.189650 0.622139 0.437493 Si
0.188741 0.628350 0.687871 Si
0.186295 0.627701 0.938973 Si
0.185553 0.876714 0.187931 Si
0.188614 0.875100 0.437290 Si
0.190809 0.873341 0.688654 Si
0.187579 0.873076 0.940127 Si
0.438747 0.121582 0.186361 Si
0.435186 0.124894 0.434709 Si
0.436347 0.125254 0.684250 Si
0.440967 0.123474 0.936608 Si
0.439668 0.372737 0.189247 Si
0.430693 0.376971 0.439410 Si
0.437890 0.373999 0.686350 Si
0.436376 0.378937 0.937187 Si
0.436937 0.627062 0.189243 Si
0.437285 0.629181 0.440075 Si
0.439976 0.622246 0.687670 Si
0.431227 0.628216 0.940327 Si
0.434018 0.876606 0.185760 Si
0.438422 0.872462 0.436441 Si
0.436000 0.875639 0.686955 Si
0.434784 0.877715 0.941421 Si
0.687436 0.121554 0.185661 Si
0.685953 0.124306 0.438298 Si
0.689755 0.119176 0.687189 Si
0.686332 0.128397 0.936948 Si
0.686764 0.378560 0.190140 Si
0.689784 0.379171 0.436946 Si
0.686554 0.380682 0.688244 Si
0.686129 0.374762 0.936997 Si
0.687256 0.620816 0.184061 Si
0.686313 0.628028 0.439813 Si
0.687753 0.626497 0.688568 Si
0.685704 0.628037 0.937508 Si
0.686470 0.877937 0.186396 Si
0.686007 0.878400 0.438826 Si
0.687927 0.872425 0.690325 Si
0.685678 0.873399 0.937346 Si
0.939966 0.121715 0.184463 Si
0.938280 0.125985 0.439959 Si
0.935714 0.125861 0.688139 Si
0.941256 0.121740 0.934856 Si
0.940509 0.370740 0.184174 Si
0.934583 0.375952 0.438550 Si
0.933805 0.375006 0.691141 Si
0.939116 0.373552 0.936880 Si
0.938269 0.626982 0.190164 Si
0.944814 0.622757 0.438232 Si
0.935640 0.629382 0.687222 Si
0.933990 0.629804 0.937675 Si
0.935086 0.877005 0.189286 Si
0.938269 0.874576 0.437978 Si
0.939148 0.875524 0.684622 Si
0.935925 0.874399 0.934462 Si
