Ba1 Ti1 O3                              
   1.00000000000000     
     4.0330440000000003    0.0000000000000000    0.0000000000000000
     0.0000000000000000    4.0330440000000003    0.0000000000000000
     0.0000000000000000    0.0000000000000000    4.0330440000000003
   Ba   Ti   O 
     1     1     3
Direct
  0.0000000000000000  0.0000000000000000  0.0028000000000006
  0.5000000000000000  0.5000000000000000  0.5028000000000006
  0.0000000000000000  0.5000000000000000  0.5028000000000006
  0.5000000000000000  0.0000000000000000  0.5028000000000006
  0.5000000000000000  0.5000000000000000  0.0028000000000006
 
  0.00000000E+00  0.00000000E+00  0.00000000E+00
  0.00000000E+00  0.00000000E+00  0.00000000E+00
  0.00000000E+00  0.00000000E+00  0.00000000E+00
  0.00000000E+00  0.00000000E+00  0.00000000E+00
  0.00000000E+00  0.00000000E+00  0.00000000E+00
