pymatgen generated KPOINTS with grid density = 6989 / atom
0
Gamma
11 11 11
