Li1 H1
1.0
0.000000 2.000087 2.000087
2.000087 0.000000 2.000087
2.000087 2.000087 0.000000
Li H
1 1
direct
0.000000 0.000000 0.000000 Li
0.500000 0.500000 0.500000 H
