Ba1 Ti1 O3                              
   1.00000000000000     
     4.0189659999999998    0.0000000000000000    0.0000000000000000
     0.0000000000000000    4.0189659999999998    0.0000000000000000
     0.0000000000000000    0.0000000000000000    4.1142440000000002
   Ba   Ti   O 
     1     1     3
Direct
  0.0000000000000000  0.0000000000000000  0.0105659999999972
  0.5000000000000000  0.5000000000000000  0.5188229999999976
  0.0000000000000000  0.5000000000000000  0.4980100000000007
  0.5000000000000000  0.0000000000000000  0.4980100000000007
  0.5000000000000000  0.5000000000000000  0.9885909999999996
 
  0.00000000E+00  0.00000000E+00  0.00000000E+00
  0.00000000E+00  0.00000000E+00  0.00000000E+00
  0.00000000E+00  0.00000000E+00  0.00000000E+00
  0.00000000E+00  0.00000000E+00  0.00000000E+00
  0.00000000E+00  0.00000000E+00  0.00000000E+00
