pymatgen generated KPOINTS with grid density = 1837 / atom
0
Monkhorst
8 8 8
