Ba1 Ti1 O3                              
   1.00000000000000     
     4.0260049999999996    0.0000000000000000    0.0000000000000000
     0.0000000000000000    4.0260049999999996    0.0000000000000000
     0.0000000000000000    0.0000000000000000    4.0736439999999998
   Ba   Ti   O 
     1     1     3
Direct
  0.0000000000000000  0.0000000000000000  0.0066830000000024
  0.5000000000000000  0.5000000000000000  0.5108120000000014
  0.0000000000000000  0.5000000000000000  0.5004050000000007
  0.5000000000000000  0.0000000000000000  0.5004050000000007
  0.5000000000000000  0.5000000000000000  0.9956949999999978
 
  0.00000000E+00  0.00000000E+00  0.00000000E+00
  0.00000000E+00  0.00000000E+00  0.00000000E+00
  0.00000000E+00  0.00000000E+00  0.00000000E+00
  0.00000000E+00  0.00000000E+00  0.00000000E+00
  0.00000000E+00  0.00000000E+00  0.00000000E+00
