Y2 Mg4 P2 O8
1.0
-6.226480 5.660962 2.500471
6.496023 -5.891763 3.478713
3.310907 3.236319 -2.916380
Y Mg P O
2 4 2 8
direct
0.492656 0.585200 0.030113 Y
0.761175 0.162499 0.470718 Y
0.800000 0.878571 0.500000 Mg
0.123728 0.870390 0.246283 Mg
0.712769 0.532482 0.558585 Mg
0.538072 0.211662 0.939238 Mg
0.261872 0.658878 0.469551 P
0.992315 0.088830 0.031495 P
0.825617 0.815864 0.870310 O
0.263018 0.563405 0.676729 O
0.936525 0.427249 0.252883 O
0.831964 0.032452 0.185985 O
0.990799 0.183485 0.823355 O
0.429699 0.932196 0.632021 O
0.421532 0.714960 0.314155 O
0.317666 0.321040 0.248581 O
