log  peo.log
units  real
timestep  1
dimension  3
atom_style  full
boundary  p p p
neighbor  2.0 bin
neigh_modify  every 1 delay 0 check yes
bond_style  harmonic
angle_style  harmonic
dihedral_style  opls
read_data  peo.data
pair_style  $${pair_style}
pair_coeff 1 1 2649.6 0.2674 27.22
pair_coeff 1 2 4320.0 0.2928 137.6
pair_coeff 1 3 14176.0 0.2563 104.0
pair_coeff 2 2 14976.0 0.3236 637.6
pair_coeff 2 3 33702.4 0.2796 503.0
pair_coeff 3 3 75844.8 0.2461 396.9
kspace_style  $${kspace_style}
dump peodump all custom 1000 peo.dump id type x y z ix iy iz mol
dump traj all dcd 1000 peo.dcd
thermo_style  $${thermo_style_1}
thermo  $${thermo_style_2}
#restart  100000 peo_npt.restart
group  CH type 1 2
fix $${fix_1}
fix $${fix_2}
run  1000
