Si2
1.0
3.840198 0.000000 0.000000
1.920099 3.325710 0.000000
0.000000 -2.217138 3.135509
Si
2
direct
0.000000 0.000000 0.000000 Si
0.750000 0.500000 0.750000 Si
