ALGO = Fast
EDIFF = 0.0001
EDIFFG = -0.02
ENCUT = 400
IBRION = 2
ICHARG = 2
ISIF = 3
ISMEAR = 1
ISPIN = 2
LCHARG = False
LDAU = False
LORBIT = 11
LREAL = Auto
LWAVE = False
MAGMOM = 20*0.6
NELM = 60
NPAR = 4
NSW = 200
PREC = Normal
SIGMA = 0.05
