Generated by pymatgen's MVLGBSet
0
Gamma
4 4 4
