Li20
1.0
-0.000000 -6.853634 3.426817
-0.000000 -3.426817 -6.853634
6.853634 0.000000 0.000000
Li
20
direct
0.400000 0.800000 0.000000 Li
0.800000 0.600000 0.000000 Li
0.200000 0.400000 0.000000 Li
0.600000 0.200000 0.000000 Li
0.000000 0.000000 0.000000 Li
0.500000 0.500000 0.250000 Li
0.900000 0.300000 0.250000 Li
0.300000 0.100000 0.250000 Li
0.700000 0.900000 0.250000 Li
0.100000 0.700000 0.250000 Li
0.600000 0.800000 0.500000 Li
0.800000 0.400000 0.500000 Li
0.200000 0.600000 0.500000 Li
0.400000 0.200000 0.500000 Li
0.000000 0.000000 0.500000 Li
0.500000 0.500000 0.750000 Li
0.700000 0.100000 0.750000 Li
0.100000 0.300000 0.750000 Li
0.300000 0.900000 0.750000 Li
0.900000 0.700000 0.750000 Li
