Generated by pymatgen's MVLGBSet
0
Gamma
6 6 1
