Li24
1.0
0.000000 3.426817 -3.426817
3.426817 -3.426817 0.000000
-13.707268 -13.707268 -13.707268
Li
24
direct
0.666667 0.333333 0.166667 Li
0.666667 0.333333 0.416667 Li
0.333333 0.666667 0.083333 Li
0.333333 0.666667 0.333333 Li
0.000000 0.000000 0.000000 Li
0.000000 -0.000000 0.250000 Li
0.666667 0.333333 0.041667 Li
0.666667 0.333333 0.291667 Li
0.333333 0.666667 0.208333 Li
0.333333 0.666667 0.458333 Li
0.000000 -0.000000 0.125000 Li
0.000000 0.000000 0.375000 Li
0.333333 0.666667 0.666667 Li
0.333333 0.666667 0.916667 Li
0.666667 0.333333 0.583333 Li
0.666667 0.333333 0.833333 Li
0.000000 -0.000000 0.500000 Li
0.000000 0.000000 0.750000 Li
0.333333 0.666667 0.541667 Li
0.333333 0.666667 0.791667 Li
0.666667 0.333333 0.708333 Li
0.666667 0.333333 0.958333 Li
0.000000 -0.000000 0.625000 Li
0.000000 -0.000000 0.875000 Li
