ALGO = Fast
EDIFF = 0.0012000000000000001
ENCUT = 520
IBRION = 2
ICHARG = 1
ISIF = 3
ISMEAR = -5
ISPIN = 2
LORBIT = 11
LREAL = Auto
LWAVE = False
MAGMOM = 24*0.6
NELM = 100
NELMIN = 6
NSW = 99
PREC = Accurate
SIGMA = 0.05
