pymatgen generated KPOINTS with grid density = 1000 / atom
0
Gamma
1 1 1
