Si8                                     
   1.00000000000000     
     5.4685949999999997    0.0000000000000000    0.0000000000000000
     0.0000000000000000    5.4685949999999997    0.1640580000000000
     0.0000000000000000    0.0000000000000000    5.4685949999999997
   Si
     8
Direct
  0.0019309174166582  0.0000000000000000  0.5000000000000000
  0.7480690825833418  0.7500000000000000  0.7500000000000000
  0.0019309174166582  0.5000000000000000 -0.0000000000000000
  0.7480690825833418  0.2500000000000000  0.2500000000000000
  0.5019309174166582  0.0000000000000000  0.0000000000000000
  0.2480690825833418  0.7500000000000000  0.2500000000000000
  0.5019309174166582  0.5000000000000000  0.5000000000000000
  0.2480690825833418  0.2500000000000000  0.7500000000000000
 
  0.00000000E+00  0.00000000E+00  0.00000000E+00
  0.00000000E+00  0.00000000E+00  0.00000000E+00
  0.00000000E+00  0.00000000E+00  0.00000000E+00
  0.00000000E+00  0.00000000E+00  0.00000000E+00
  0.00000000E+00  0.00000000E+00  0.00000000E+00
  0.00000000E+00  0.00000000E+00  0.00000000E+00
  0.00000000E+00  0.00000000E+00  0.00000000E+00
  0.00000000E+00  0.00000000E+00  0.00000000E+00
