O2 Ni2
1.0
4.170000 2.085000 2.085000
2.085000 4.170000 2.085000
2.085000 2.085000 4.170000
O Ni
2 2
direct
0.250000 0.250000 0.250000 O
0.750000 0.750000 0.750000 O
0.000000 0.000000 0.000000 Ni
0.500000 0.500000 0.500000 Ni
