Si8                                     
   1.00000000000000     
     5.4687270000000003    0.0000000000000000    0.3281240000000000
     0.0000000000000000    5.4687270000000003    0.0000000000000000
     0.0000000000000000    0.0000000000000000    5.4588749999999999
   Si
     8
Direct
 -0.0000000000000000  0.0037854373567054 -0.0000000000000000
  0.2500000000000000  0.2462145626432946  0.2500000000000000
  0.0000000000000000  0.5037854373567053  0.5000000000000000
  0.2500000000000000  0.7462145626432947  0.7500000000000000
  0.5000000000000000  0.0037854373567054  0.5000000000000000
  0.7500000000000000  0.2462145626432946  0.7500000000000000
  0.5000000000000000  0.5037854373567053 -0.0000000000000000
  0.7500000000000000  0.7462145626432947  0.2500000000000000
 
  0.00000000E+00  0.00000000E+00  0.00000000E+00
  0.00000000E+00  0.00000000E+00  0.00000000E+00
  0.00000000E+00  0.00000000E+00  0.00000000E+00
  0.00000000E+00  0.00000000E+00  0.00000000E+00
  0.00000000E+00  0.00000000E+00  0.00000000E+00
  0.00000000E+00  0.00000000E+00  0.00000000E+00
  0.00000000E+00  0.00000000E+00  0.00000000E+00
  0.00000000E+00  0.00000000E+00  0.00000000E+00
