pymatgen generated KPOINTS with grid density = 1000 / atom
0
Gamma
8 8 8
