pymatgen generated KPOINTS with grid density = 619 / atom
0
Gamma
8 8 8
