Si64
1.0
10.752038 0.000000 0.000000
0.000000 10.752038 0.000000
0.000000 0.000000 10.752038
Si
64
direct
0.250000 0.250000 0.250000 Si
0.250000 0.250000 0.750000 Si
0.250000 0.750000 0.250000 Si
0.250000 0.750000 0.750000 Si
0.750000 0.250000 0.250000 Si
0.750000 0.250000 0.750000 Si
0.750000 0.750000 0.250000 Si
0.750000 0.750000 0.750000 Si
0.375000 0.375000 0.375000 Si
0.375000 0.375000 0.875000 Si
0.375000 0.875000 0.375000 Si
0.375000 0.875000 0.875000 Si
0.875000 0.375000 0.375000 Si
0.875000 0.375000 0.875000 Si
0.875000 0.875000 0.375000 Si
0.875000 0.875000 0.875000 Si
0.250000 -0.000000 0.000000 Si
0.250000 0.000000 0.500000 Si
0.250000 0.500000 -0.000000 Si
0.250000 0.500000 0.500000 Si
0.750000 0.000000 -0.000000 Si
0.750000 -0.000000 0.500000 Si
0.750000 0.500000 0.000000 Si
0.750000 0.500000 0.500000 Si
0.375000 0.125000 0.125000 Si
0.375000 0.125000 0.625000 Si
0.375000 0.625000 0.125000 Si
0.375000 0.625000 0.625000 Si
0.875000 0.125000 0.125000 Si
0.875000 0.125000 0.625000 Si
0.875000 0.625000 0.125000 Si
0.875000 0.625000 0.625000 Si
-0.000000 0.250000 -0.000000 Si
0.000000 0.250000 0.500000 Si
0.000000 0.750000 0.000000 Si
0.000000 0.750000 0.500000 Si
0.500000 0.250000 0.000000 Si
0.500000 0.250000 0.500000 Si
0.500000 0.750000 -0.000000 Si
0.500000 0.750000 0.500000 Si
0.125000 0.375000 0.125000 Si
0.125000 0.375000 0.625000 Si
0.125000 0.875000 0.125000 Si
0.125000 0.875000 0.625000 Si
0.625000 0.375000 0.125000 Si
0.625000 0.375000 0.625000 Si
0.625000 0.875000 0.125000 Si
0.625000 0.875000 0.625000 Si
0.000000 -0.000000 0.250000 Si
-0.000000 0.000000 0.750000 Si
-0.000000 0.500000 0.250000 Si
0.000000 0.500000 0.750000 Si
0.500000 -0.000000 0.250000 Si
0.500000 -0.000000 0.750000 Si
0.500000 0.500000 0.250000 Si
0.500000 0.500000 0.750000 Si
0.125000 0.125000 0.375000 Si
0.125000 0.125000 0.875000 Si
0.125000 0.625000 0.375000 Si
0.125000 0.625000 0.875000 Si
0.625000 0.125000 0.375000 Si
0.625000 0.125000 0.875000 Si
0.625000 0.625000 0.375000 Si
0.625000 0.625000 0.875000 Si

0.000000 0.000000 0.000000
0.000000 0.000000 0.000000
0.000000 0.000000 0.000000
0.000000 0.000000 0.000000
0.000000 0.000000 0.000000
0.000000 0.000000 0.000000
0.000000 0.000000 0.000000
0.000000 0.000000 0.000000
0.000000 0.000000 0.000000
0.000000 0.000000 0.000000
0.000000 0.000000 0.000000
0.000000 0.000000 0.000000
0.000000 0.000000 0.000000
0.000000 0.000000 0.000000
0.000000 0.000000 0.000000
0.000000 0.000000 0.000000
0.000000 0.000000 0.000000
0.000000 0.000000 0.000000
0.000000 0.000000 0.000000
0.000000 0.000000 0.000000
0.000000 0.000000 0.000000
0.000000 0.000000 0.000000
0.000000 0.000000 0.000000
0.000000 0.000000 0.000000
0.000000 0.000000 0.000000
0.000000 0.000000 0.000000
0.000000 0.000000 0.000000
0.000000 0.000000 0.000000
0.000000 0.000000 0.000000
0.000000 0.000000 0.000000
0.000000 0.000000 0.000000
0.000000 0.000000 0.000000
0.000000 0.000000 0.000000
0.000000 0.000000 0.000000
0.000000 0.000000 0.000000
0.000000 0.000000 0.000000
0.000000 0.000000 0.000000
0.000000 0.000000 0.000000
0.000000 0.000000 0.000000
0.000000 0.000000 0.000000
0.000000 0.000000 0.000000
0.000000 0.000000 0.000000
0.000000 0.000000 0.000000
0.000000 0.000000 0.000000
0.000000 0.000000 0.000000
0.000000 0.000000 0.000000
0.000000 0.000000 0.000000
0.000000 0.000000 0.000000
0.000000 0.000000 0.000000
0.000000 0.000000 0.000000
0.000000 0.000000 0.000000
0.000000 0.000000 0.000000
0.000000 0.000000 0.000000
0.000000 0.000000 0.000000
0.000000 0.000000 0.000000
0.000000 0.000000 0.000000
0.000000 0.000000 0.000000
0.000000 0.000000 0.000000
0.000000 0.000000 0.000000
0.000000 0.000000 0.000000
0.000000 0.000000 0.000000
0.000000 0.000000 0.000000
0.000000 0.000000 0.000000
0.000000 0.000000 0.000000
