Li O
1.0
  -4.6100000000000003  -4.6100000000000003   0.0000000000000000
  -4.6100000000000003   0.0000000000000000  -4.6100000000000003
   0.0000000000000000  -4.6100000000000003  -4.6100000000000003
Li O
15  8  
Direct
  0.1250000000000000  0.1250000000000000  0.0000000000000000  
  0.1250000000000000  0.6250000000000000  0.1250000000000000  
  0.1250000000000000  0.6250000000000000  0.6250000000000000  
  0.6250000000000000  0.1250000000000000  0.1250000000000000  
  0.6250000000000000  0.1250000000000000  0.6250000000000000  
  0.6250000000000000  0.6250000000000000  0.1250000000000000  
  0.6250000000000000  0.6250000000000000  0.6250000000000000  
  0.3750000000000000  0.3750000000000000  0.3750000000000000  
  0.3750000000000000  0.3750000000000000  0.8750000000000000  
  0.3750000000000000  0.8750000000000000  0.3750000000000000  
  0.3750000000000000  0.8750000000000000  0.8750000000000000  
  0.8750000000000000  0.3750000000000000  0.3750000000000000  
  0.8750000000000000  0.3750000000000000  0.8750000000000000  
  0.8750000000000000  0.8750000000000000  0.3750000000000000  
  0.8750000000000000  0.8750000000000000  0.8750000000000000  
  0.0000000000000000  0.0000000000000000  0.0000000000000000  
  0.0000000000000000  0.0000000000000000  0.5000000000000000  
  0.0000000000000000  0.5000000000000000  0.0000000000000000  
  0.0000000000000000  0.5000000000000000  0.5000000000000000  
  0.5000000000000000  0.0000000000000000  0.0000000000000000  
  0.5000000000000000  0.0000000000000000  0.5000000000000000  
  0.5000000000000000  0.5000000000000000  0.0000000000000000  
  0.5000000000000000  0.5000000000000000  0.5000000000000000  
