Poscar v1.1 :: 1 :: Si                  
    1.000000000000000     
     3.3488982595592660    0.0000000000002489    1.9334873116552100
     1.1162994198868910    3.1573715584603050    1.9334873116552100
     0.0000000000000000    0.0000000000000000    3.8669746233104200
   Si
   2
Direct
  0.8750000000000000  0.8750000000000000  0.8750000000000000
  0.1250000000000000  0.1250000000000000  0.1250000000000000

  0.00000000E+00  0.00000000E+00  0.00000000E+00
  0.00000000E+00  0.00000000E+00  0.00000000E+00
