Si2                                     
   1.00000000000000     
     3.8674569999999999    0.0000000000000000    0.0000000000000000
     1.9337279999999999    3.3493170000000001    0.0000000000000000
     0.0000000000000000   -2.2328760000000001    3.1577660000000001
   Si
     2
Direct
  0.9988979999999970  0.0018000000000029  0.0010040000000018
  0.7511020000000030  0.4981999999999971  0.7489959999999982
 
  0.00000000E+00  0.00000000E+00  0.00000000E+00
  0.00000000E+00  0.00000000E+00  0.00000000E+00
