$molecule
 0 2
 O     -1.9622175816      1.1060043230      0.0709687370
 O     -1.9610805772     -1.0946698475     -0.1143048199
 O     -0.0125851665      0.0011715900      0.0321374564
 C     -3.3514895076      0.7444938189      0.1514985019
 C     -3.3520420153     -0.7383009053     -0.1914964325
 C     -1.2127898708      0.0048581859      0.0095983571
 H     -3.9138657601      1.3715404079     -0.5375146771
 H     -3.6804534788      0.8998570317      1.2004203943
 H     -3.8918573164     -1.3201602542      0.5686059192
 H     -3.7116187257     -0.9731943504     -1.1922134364
 Li      0.5401522606      1.7637013727     -0.6447137855
$end

$rem
   job_type = opt
   basis = 6-311++g*
   max_scf_cycles = 200
   gen_scfman = true
   scf_algorithm = gdm
   method = wb97xd
   geom_opt_max_cycles = 200
   solvent_method = pcm
   xc_grid = 3
$end

$pcm
   heavypoints 194
   hpoints 194
   radii uff
   theory cpcm
   vdwscale 1.1
$end

$solvent
   dielectric 30.0
$end
