$molecule
 0 2
 O     -2.0898312583      1.1838562019     -0.1175247110
 O     -1.9855737121     -1.0805440748      0.0010348284
 O     -0.0461489480      0.1192983629     -0.2328130149
 C     -3.3973546704      0.7337473186      0.2055240930
 C     -3.3581897717     -0.7646025167     -0.1101863742
 C     -1.2887239858      0.0503945584     -0.5005565856
 H     -4.1429876648      1.2685640703     -0.3881694231
 H     -3.5871568466      0.9209066381      1.2674759895
 H     -3.9214262468     -1.3715453150      0.5977577641
 H     -3.7144624269     -0.9684360066     -1.1272332467
 Li      1.0220077920      1.6736621356     -0.2423231051
$end

$rem
   job_type = freq
   basis = 6-311++g*
   max_scf_cycles = 200
   gen_scfman = true
   scf_algorithm = gdm
   method = wb97xd
   geom_opt_max_cycles = 200
   solvent_method = pcm
   xc_grid = 3
$end

$pcm
   heavypoints 194
   hpoints 194
   radii uff
   theory cpcm
   vdwscale 1.1
$end

$solvent
   dielectric 30.0
$end
