$molecule
 0 2
 O     -2.0918880821      1.1846789314     -0.0566427270
 O     -1.9962691958     -1.0867145462     -0.0355766350
 O     -0.0420353004      0.1209438219     -0.1007649280
 C     -3.4076387893      0.7197609169      0.2116945644
 C     -3.3631261488     -0.7592547749     -0.1883456780
 C     -1.2706239365      0.0660264192     -0.4441996139
 H     -4.1376399230      1.2911891319     -0.3688352795
 H     -3.6217114862      0.8460382524      1.2802282970
 H     -3.9588604397     -1.4044544955      0.4603619353
 H     -3.6762055045     -0.9026176455     -1.2325426244
 Li      1.0396964765      1.6720166766     -0.5417966480
$end

$rem
   job_type = opt
   basis = 6-311++g*
   max_scf_cycles = 200
   gen_scfman = true
   scf_algorithm = gdm
   method = wb97xd
   geom_opt_max_cycles = 200
   solvent_method = pcm
   xc_grid = 3
$end

$pcm
   heavypoints 194
   hpoints 194
   radii uff
   theory cpcm
   vdwscale 1.1
$end

$solvent
   dielectric 30.0
$end
