$molecule
 0 2
 O     -2.0811227156      1.1763675454     -0.1630340903
 O     -1.9885728818     -1.0898907069     -0.0711920703
 O     -0.0463985630      0.1020982086     -0.3253820199
 C     -3.3826229045      0.7305986033      0.1878467369
 C     -3.3610911192     -0.7628840464     -0.1497821962
 C     -1.2935470261      0.0420470421     -0.5727434482
 H     -4.1388519152      1.2794809239     -0.3787668701
 H     -3.5440691472      0.9028478644      1.2568198634
 H     -3.9143254259     -1.3768527668      0.5602605417
 H     -3.7396859390     -0.9487739419     -1.1622366924
 Li      0.9639853078      1.6925739626     -0.1982090917
$end

$rem
   job_type = freq
   basis = 6-311++g*
   max_scf_cycles = 200
   gen_scfman = true
   scf_algorithm = gdm
   method = wb97xd
   geom_opt_max_cycles = 200
   solvent_method = pcm
   xc_grid = 3
$end

$pcm
   heavypoints 194
   hpoints 194
   radii uff
   theory cpcm
   vdwscale 1.1
$end

$solvent
   dielectric 30.0
$end
