$molecule
 0 2
 O     -2.0702724456      1.1706747271     -0.1961087451
 O     -1.9775542709     -1.0859292143      0.0345680532
 O     -0.0387472452      0.0880850737     -0.3160833406
 C     -3.3666034775      0.7500403276      0.2013270110
 C     -3.3511754816     -0.7623698474     -0.0400096735
 C     -1.2888156606      0.0121519018     -0.5450853210
 H     -4.1308368955      1.2625134259     -0.3882240081
 H     -3.5127548346      0.9902303278      1.2593223097
 H     -3.8905709245     -1.3281112210      0.7191607739
 H     -3.7487976925     -1.0139034526     -1.0306730125
 Li      0.8827357795      1.6996080085      0.0241977189
$end

$rem
   job_type = freq
   basis = 6-311++g*
   max_scf_cycles = 200
   gen_scfman = true
   scf_algorithm = gdm
   method = wb97xd
   geom_opt_max_cycles = 200
   solvent_method = pcm
   xc_grid = 3
$end

$pcm
   heavypoints 194
   hpoints 194
   radii uff
   theory cpcm
   vdwscale 1.1
$end

$solvent
   dielectric 30.0
$end
