$molecule
 0 2
 O     -2.0877744345      1.1830334724     -0.1784066950
 O     -1.9748782284     -1.0743736034      0.0376462918
 O     -0.0502625956      0.1176529039     -0.3648611018
 C     -3.3870705515      0.7477337203      0.1993536216
 C     -3.3532533946     -0.7699502585     -0.0320270704
 C     -1.3068240351      0.0347626976     -0.5569135573
 H     -4.1483354066      1.2459390087     -0.4075035667
 H     -3.5526022070      0.9957750238      1.2547236820
 H     -3.8839920539     -1.3386361345      0.7351535929
 H     -3.7527193493     -1.0342543677     -1.0219238690
 Li      1.0043191075      1.6753075946      0.0571504378
$end

$rem
   job_type = opt
   basis = 6-311++g*
   max_scf_cycles = 200
   gen_scfman = true
   scf_algorithm = gdm
   method = wb97xd
   geom_opt_max_cycles = 200
   solvent_method = pcm
   xc_grid = 3
$end

$pcm
   heavypoints 194
   hpoints 194
   radii uff
   theory cpcm
   vdwscale 1.1
$end

$solvent
   dielectric 30.0
$end
