Si2                                     
   1.00000000000000     
     3.8674220899491254    0.0000000000000000    0.0000000000000000
     1.9337110449745627    3.3492867742574806    0.0000000150385583
    -0.0000000000000000   -2.2328558211480094    3.1577373761817729
   Si
     2
Direct
  0.0000000000000000 -0.0000000000000000 -0.0000000000000000
  0.7500000000000000  0.5000000000000000  0.7500000000000000
 
  0.00000000E+00  0.00000000E+00  0.00000000E+00
  0.00000000E+00  0.00000000E+00  0.00000000E+00
