ALGO = Fast
EDIFF = 0.0001
ENCUT = 520
IBRION = 2
ICHARG = 1
ISIF = 3
ISMEAR = -5
ISPIN = 2
LORBIT = 11
LREAL = Auto
LWAVE = False
MAGMOM = 2*0.6
NELM = 100
NPAR = 4
NSW = 99
PREC = Accurate
SIGMA = 0.05
