Al1                                     
   1.00000000000000     
     0.0000000000000000    2.0194649999999998    2.0194649999999998
     2.0194649999999998    0.0000000000000000    2.0194649999999998
     2.0194649999999998    2.0194649999999998    0.0000000000000000
   Al
     1
Direct
  0.0000000000000000  0.0000000000000000  0.0000000000000000
 
  0.00000000E+00  0.00000000E+00  0.00000000E+00
