ALGO = Fast
EDIFF = 0.00015000000000000001
ENCUT = 520
IBRION = 2
ISIF = 3
ISMEAR = -5
ISPIN = 2
ISTART = 1
LASPH = True
LCHARG = False
LORBIT = 11
LREAL = Auto
LWAVE = False
MAGMOM = 3*0.6
NELM = 100
NPAR = 4
NSW = 99
PREC = Accurate
SIGMA = 0.05
LASPH = True
LMAXMIX = 4
