pymatgen v2020.11.11 with grid density = 100 / number of atoms
0
Gamma
3 3 3
