Cd1 F2                                  
   1.0000000000000000     
     3.3674253710040958    0.0000000000000000    1.9441839327672812
     1.1224751236680321    3.1748394189081930    1.9441839327672812
    -0.0000000000000000   -0.0000000000000000    3.8883678655345624
   Cd   F 
     1     2
Direct
  0.0000000000000000  0.0000000000000000  0.0000000000000000
  0.7500000000000000  0.7500000000000000  0.7500000000000000
  0.2500000000000000  0.2500000000000000  0.2500000000000000

  0.00000000E+00  0.00000000E+00  0.00000000E+00
  0.00000000E+00  0.00000000E+00  0.00000000E+00
  0.00000000E+00  0.00000000E+00  0.00000000E+00
