Si2                                     
   1.00000000000000     
     3.3856750000000000    0.0000000000000000    1.9547209999999999
     1.1285580000000000    3.1920449999999998    1.9547209999999999
     0.0000000000000000    0.0000000000000000    3.9094400000000000
   Si
     2
Direct
  0.8750000000000000  0.8750000000000000  0.8750000000000000
  0.1250000000000000  0.1250000000000000  0.1250000000000000
 
  0.00000000E+00  0.00000000E+00  0.00000000E+00
  0.00000000E+00  0.00000000E+00  0.00000000E+00
