pymatgen 4.7.6+ generated KPOINTS with grid density = 619.431852869 / atom
0
Gamma
6 6 6