pymatgen generated KPOINTS with grid density = 619 / atom
0
Gamma
7 7 7
