Si2
1.0
   3.8401979336999998    0.0000000000000000    0.0000000000000000
   1.9200989667999999    3.3257101909000002    0.0000000000000000
   0.0000000000000000   -2.2171384942999999    3.1355090603000000
Si
2
direct
   0.0000000000000000    0.0000000000000000    0.0000000000000000 Si
   0.7500000000000000    0.5000000000000000    0.7500000000000000 Si
