Ba1 Ti1 O3                              
   1.00000000000000     
     4.0119270000000000    0.0000000000000000    0.0000000000000000
     0.0000000000000000    4.0119270000000000    0.0000000000000000
     0.0000000000000000    0.0000000000000000    4.1548439999999998
   Ba   Ti   O 
     1     1     3
Direct
  0.0000000000000000  0.0000000000000000  0.0144489999999990
  0.5000000000000000  0.5000000000000000  0.5268349999999984
  0.0000000000000000  0.5000000000000000  0.4956150000000008
  0.5000000000000000  0.0000000000000000  0.4956150000000008
  0.5000000000000000  0.5000000000000000  0.9814859999999967
 
  0.00000000E+00  0.00000000E+00  0.00000000E+00
  0.00000000E+00  0.00000000E+00  0.00000000E+00
  0.00000000E+00  0.00000000E+00  0.00000000E+00
  0.00000000E+00  0.00000000E+00  0.00000000E+00
  0.00000000E+00  0.00000000E+00  0.00000000E+00
