Si2                                     
   1.00000000000000     
     3.3112650000000001    0.0000000000000000    1.9117599999999999
     1.1037550000000000    3.1218900000000001    1.9117599999999999
     0.0000000000000000    0.0000000000000000    3.8235180000000000
   Si
     2
Direct
  0.8750000000000000  0.8750000000000000  0.8750000000000000
  0.1250000000000000  0.1250000000000000  0.1250000000000000
 
  0.00000000E+00  0.00000000E+00  0.00000000E+00
  0.00000000E+00  0.00000000E+00  0.00000000E+00
