pymatgen generated KPOINTS with grid density = 6920 / atom
0
Gamma
9 11 11
