pymatgen generated KPOINTS with grid density = 2426 / atom
0
Gamma
11 11 11
