$molecule
 0 2
 O     -1.9303170103     -4.3252774174      1.3388474306
 C     -1.5697825504     -4.9674915330      0.2179949447
 C     -2.7895166195     -3.2252228285      0.9967650609
 O     -0.7308331758     -5.8233507995      0.1729347022
 O     -2.2730140125     -4.5382521363     -0.8398508077
 C     -3.2750933425     -3.5930799742     -0.4003280389
 H     -2.3720006406     -2.5610404594      0.9863319203
 H     -3.5771902237     -3.1380144473      1.7550117190
 H     -3.2581638000     -2.7365641132     -1.0731409980
 H     -4.2486590539     -4.0822056370     -0.4368719689
 C     -0.9119052060     -1.3549295518      0.6330771153
 O      0.0252758643     -1.8465715526      0.1458350598
 H     -1.0438202290     -0.2775395498      0.9148738605
$end

$rem
   job_type = opt
   basis = def2-tzvppd
   max_scf_cycles = 100
   gen_scfman = true
   xc_grid = 3
   scf_algorithm = diis
   resp_charges = true
   symmetry = false
   sym_ignore = true
   method = wb97xv
   geom_opt_max_cycles = 200
   solvent_method = smd
   ideriv = 1
   thresh = 14
   s2thresh = 16
$end

$smx
   solvent other
$end
