$molecule
 0 2
 O     -1.9995034827     -4.3066815566      1.2149558113
 C     -1.4689382355     -4.3670984148     -0.0149256852
 C     -3.2221965281     -3.5418068806      1.1653146181
 O     -0.3800508564     -4.8066033736     -0.2596803588
 O     -2.3139473256     -3.8886428533     -0.9387014583
 C     -3.5786508593     -3.5796102918     -0.3147270525
 H     -3.0108960571     -2.5329133883      1.5244588294
 H     -3.9604866911     -4.0247448626      1.8025973929
 H     -3.9330918474     -2.6254362993     -0.7002520427
 H     -4.2850668945     -4.3744923988     -0.5606065435
 C     -0.2528925470     -1.6151044464      0.4581211522
 O      0.0845957341     -1.2120517346      1.5096060147
 H      0.3661055906     -1.5943534992     -0.4746806779
$end

$rem
   job_type = freq
   basis = def2-tzvppd
   max_scf_cycles = 100
   gen_scfman = true
   xc_grid = 3
   scf_algorithm = diis
   resp_charges = true
   symmetry = false
   sym_ignore = true
   method = wb97xv
   geom_opt_max_cycles = 200
   solvent_method = smd
   ideriv = 1
   thresh = 14
   s2thresh = 16
$end

$smx
   solvent other
$end
