Si2                                     
   1.00000000000000     
     3.6833170000000002    0.0000000000000000    2.1265640000000001
     1.2277720000000001    3.4726640000000000    2.1265640000000001
     0.0000000000000000    0.0000000000000000    4.2531270000000001
   Si
     2
Direct
  0.8750000000000000  0.8750000000000000  0.8750000000000000
  0.1250000000000000  0.1250000000000000  0.1250000000000000
 
  0.00000000E+00  0.00000000E+00  0.00000000E+00
  0.00000000E+00  0.00000000E+00  0.00000000E+00
