ALGO = Fast
EDIFF = 2e-06
ENCUT = 520
IBRION = -1
ICHARG = 0
ISIF = 3
ISMEAR = -5
ISPIN = 2
LAECHG = True
LCHARG = True
LORBIT = 11
LREAL = Auto
LVHAR = True
LVTOT = True
LWAVE = False
MAGMOM = 2*0.0
NELM = 100
NSW = 0
PREC = Accurate
SIGMA = 0.05
