Si2
1.0
3.867422 0.000000 0.000000
1.933711 3.349287 0.000000
-0.000000 -2.232856 3.157737
Si
2
direct
0.000000 -0.000000 -0.000000 Si
0.750000 0.500000 0.750000 Si
