Cd1 F2
1.0
3.363492 0.000000 1.941913
1.121164 3.171131 1.941913
0.000000 0.000000 3.883826
Cd F
1 2
direct
0.000000 0.000000 0.000000 Cd
0.750000 0.750000 0.750000 F
0.250000 0.250000 0.250000 F
