Si2
1.0
3.683317 -0.000000 2.126564
1.227772 3.472664 2.126564
0.000000 0.000000 4.253127
Si
2
direct
0.875000 0.875000 0.875000 Si
0.125000 0.125000 0.125000 Si

0.000000 0.000000 0.000000
0.000000 0.000000 0.000000
