Si2
1.0
3.311265 -0.000000 1.911760
1.103755 3.121890 1.911760
0.000000 0.000000 3.823518
Si
2
direct
0.875000 0.875000 0.875000 Si
0.125000 0.125000 0.125000 Si

0.000000 0.000000 0.000000
0.000000 0.000000 0.000000
