Li6                                     
   1.00000000000000     
    -3.4407580000000002    3.4407580000000002    0.0000000000000000
    -3.4407580000000002    0.0000000000000000    3.4407580000000002
     3.4407580000000002    3.4407580000000002    3.4407580000000002
   Li
     6
Direct
  0.6666669999999968  0.6666669999999968  0.3333330000000032
  0.0000000000000000  0.0000000000000000  0.0000000000000000
  0.3333330000000032  0.3333330000000032  0.6666669999999968
  0.6666669999999968  0.6666669999999968  0.8333330000000032
  0.0000000000000000  0.0000000000000000  0.5000000000000000
  0.3333330000000032  0.3333330000000032  0.1666669999999968
 
  0.00000000E+00  0.00000000E+00  0.00000000E+00
  0.00000000E+00  0.00000000E+00  0.00000000E+00
  0.00000000E+00  0.00000000E+00  0.00000000E+00
  0.00000000E+00  0.00000000E+00  0.00000000E+00
  0.00000000E+00  0.00000000E+00  0.00000000E+00
  0.00000000E+00  0.00000000E+00  0.00000000E+00
