pymatgen v2020.11.11 with grid density = 2011 / number of atoms
0
Gamma
5 5 5
