Si2
1.0
3.013623 -0.000000 1.739916
1.004541 2.841271 1.739916
0.000000 0.000000 3.479831
Si
2
direct
0.875000 0.875000 0.875000 Si
0.125000 0.125000 0.125000 Si

0.000000 0.000000 0.000000
0.000000 0.000000 0.000000
