ALGO = Normal
EDIFF = 0.00025
ENCUT = 520.0
IBRION = -1
ICHARG = 0
ISIF = 3
ISMEAR = -5
ISPIN = 2
ISTART = 1
LAECHG = True
LCHARG = True
LORBIT = 11
LREAL = Auto
LVHAR = True
LWAVE = True
MAGMOM = 5*-0.0
NELM = 100
NSW = 0
PREC = accurate
SIGMA = 0.05
