$molecule
 0  3
 S          -0.01366573        0.44854819       -0.02515192
 C           1.71193205        0.21873674       -0.03307433
 H           2.27508035        0.32981237        0.88269992
 C           2.20897639       -0.11174354       -1.29665912
 H           3.26296183       -0.28911641       -1.47498381
 C           1.24164163       -0.18948207       -2.27555611
 H           1.42761901       -0.43061973       -3.31461026
 C          -0.09753218        0.09236212       -1.77346493
 C          -1.26566556        0.10283234       -2.45903366
 C          -2.60486765        0.38394061       -1.95679560
 H          -2.79089240        0.62492461       -0.91770779
 C          -3.57223101        0.30640087       -2.93573245
 H          -4.62620861        0.48371135       -2.75731332
 C          -3.07515587       -0.02369186       -4.19936541
 H          -3.63849104       -0.13621279       -5.11484360
 S          -1.34948119       -0.25276282       -4.20747762
$end


$rem
              jobtype = opt
               method = wb97m-v
                basis = def2-tzvppd
           gen_scfman = true
  geom_opt_max_cycles = 75
       max_scf_cycles = 300
        scf_algorithm = diis
            scf_guess = sad
           sym_ignore = true
             symmetry = false
               thresh = 14
$end

