ALGO = Fast
EDIFF = 2e-06
EFIELD_PEAD = 0.0 0.0 0.0
ENCUT = 520.0
IBRION = -1
ICHARG = 0
ISIF = 3
ISMEAR = -5
ISPIN = 2
LAECHG = True
LCALCEPS = False
LCALCPOL = False
LCHARG = True
LEFG = False
LMAXTAU = 0
LORBIT = 11
LPEAD = False
LREAL = Auto
LRHFATM = False
LVHAR = True
LWAVE = False
MAGMOM = 2*0.6
METAGGA = --
NELM = 100
NELMIN = 3
NPAR = 2
NSW = 0
PREC = Accurate
SIGMA = 0.05
SYSTEM = Rubyvaspy :: si
