Si2                                     
   1.00000000000000     
     3.0880329999999998    0.0000000000000000    1.7828770000000000
     1.0293440000000000    2.9114260000000001    1.7828770000000000
     0.0000000000000000    0.0000000000000000    3.5657530000000000
   Si
     2
Direct
  0.8750000000000000  0.8750000000000000  0.8750000000000000
  0.1250000000000000  0.1250000000000000  0.1250000000000000
 
  0.00000000E+00  0.00000000E+00  0.00000000E+00
  0.00000000E+00  0.00000000E+00  0.00000000E+00
