Li1 H1                                  
   1.00000000000000     
     0.0000000000000000    2.0000870000000002    2.0000870000000002
     2.0000870000000002    0.0000000000000000    2.0000870000000002
     2.0000870000000002    2.0000870000000002    0.0000000000000000
   Li   H 
     1     1
Direct
  0.0000000000000000  0.0000000000000000  0.0000000000000000
  0.5000000000000000  0.5000000000000000  0.5000000000000000
 
  0.00000000E+00  0.00000000E+00  0.00000000E+00
  0.00000000E+00  0.00000000E+00  0.00000000E+00
