Y2 Mg2 P2 O8
1.0
-3.774192 3.800358 3.080319
3.800358 -3.774192 3.080319
3.891501 3.891501 -3.057089
Y Mg P O
2 2 2 8
direct
0.453583 0.546417 0.000000 Y
0.738290 0.261710 0.500000 Y
0.005208 0.994792 0.500000 Mg
0.744736 0.255264 0.000000 Mg
0.270925 0.729075 0.500000 P
0.004539 0.995461 0.000000 P
0.840037 0.685478 0.831370 O
0.250968 0.553539 0.645515 O
0.960529 0.582095 0.332067 O
0.826805 0.008885 0.144381 O
0.991115 0.173195 0.855619 O
0.417905 0.039471 0.667933 O
0.446461 0.749032 0.354485 O
0.314522 0.159963 0.168630 O
