Li1 Mn8 O16
1.0
5.770635 0.000000 0.000000
0.000000 5.770635 0.000000
0.000000 0.000000 8.209947
Li Mn O
1 8 16
direct
0.000000 0.000000 0.500000 Li
0.750000 0.500000 0.375000 Mn
0.000000 0.250000 0.125000 Mn
0.250000 0.500000 0.375000 Mn
0.000000 0.750000 0.125000 Mn
0.250000 0.000000 0.875000 Mn
0.500000 0.750000 0.625000 Mn
0.750000 0.000000 0.875000 Mn
0.500000 0.250000 0.625000 Mn
0.500000 0.279180 0.390752 O
0.279180 0.500000 0.609248 O
0.720820 0.500000 0.609248 O
0.000000 0.720820 0.359248 O
0.000000 0.279180 0.359248 O
0.220820 0.500000 0.140752 O
0.500000 0.720820 0.390752 O
0.779180 0.500000 0.140752 O
0.000000 0.779180 0.890752 O
0.779180 0.000000 0.109248 O
0.220820 0.000000 0.109248 O
0.500000 0.220820 0.859248 O
0.500000 0.779180 0.859248 O
0.720820 0.000000 0.640752 O
0.000000 0.220820 0.890752 O
0.279180 0.000000 0.640752 O
