Si2                                     
   1.00000000000000     
     3.8674569999999999    0.0000000000000000    0.0000000000000000
     1.9337279999999999    3.3493170000000001    0.0000000000000000
     0.0000000000000000   -2.2328760000000001    3.1577660000000001
   Si
     2
Direct
  0.0000000000000000  0.0000000000000000  0.0000000000000000
  0.7500000000000000  0.5000000000000000  0.7500000000000000
 
  0.00000000E+00  0.00000000E+00  0.00000000E+00
  0.00000000E+00  0.00000000E+00  0.00000000E+00
