Si2
1.0
3.325489 0.000000 1.919972
1.108496 3.135301 1.919972
0.000000 0.000000 3.839943
Si
2
direct
0.875000 0.875000 0.875000 Si
0.125000 0.125000 0.125000 Si
